#=======================================================
# FHI-aims file: ./geometry.in
# Created using the Atomic Simulation Environment (ASE)
# Wed Jun 28 06:48:08 2023
#=======================================================
lattice_vector 13.0879999999999992 0.0000000000000000 0.0000000000000000 
lattice_vector 0.0000000000000000 10.5478199999999998 0.0000000000000000 
lattice_vector 0.0000000000000000 0.0000000000000000 31.1700000000000017 
atom_frac 0.0000000000000000 0.4986550000000000 0.3030300000000000 Zn
    constrain_relaxation .true.
atom_frac 0.0000000000000000 0.1925950000000000 0.3030300000000000 O
    constrain_relaxation .true.
atom_frac 0.1249900000000000 0.4425950000000000 0.3333300000000000 O
    constrain_relaxation .true.
atom_frac 0.1250000000000000 0.2486550000000000 0.3333300000000000 Zn
    constrain_relaxation .true.
atom_frac 0.1250000000000000 0.4986550000000000 0.3939400000000000 Zn
    constrain_relaxation .true.
atom_frac 0.1250000000000000 0.1925950000000000 0.3939400000000000 O
    constrain_relaxation .true.
atom_frac 0.2499900000000000 0.4425950000000000 0.4242400000000000 O
    constrain_relaxation .true.
atom_frac 0.0000000000000000 0.2486550000000000 0.4242400000000000 Zn
    constrain_relaxation .true.
atom_frac 0.0000000000000000 0.4986550000000000 0.4848499999999997 Zn
    constrain_relaxation .true.
atom_frac 0.0000000000000000 0.1925950000000000 0.4848499999999997 O
    constrain_relaxation .true.
atom_frac 0.1249900000000000 0.4425950000000000 0.5151500000000000 O
    constrain_relaxation .true.
atom_frac 0.1250000000000000 0.2486550000000000 0.5151500000000000 Zn
    constrain_relaxation .true.
atom_frac 0.1250000000000000 0.4986550000000000 0.5757600000000000 Zn
    constrain_relaxation .true.
atom_frac 0.1250000000000000 0.1925950000000000 0.5757600000000000 O
    constrain_relaxation .true.
atom_frac 0.2507639899312014 0.4407066793550891 0.6055418424105607 O
atom_frac 0.0006240747401176 0.2544174170795792 0.6038551146322619 Zn
atom_frac -0.0002513917438744 0.5039089841606704 0.6697622264643028 Zn
atom_frac 0.0001416635080137 0.1917868652698366 0.6660360815360021 O
atom_frac 0.1250425106042888 0.4418261744466920 0.6938959187434743 O
atom_frac 0.1267821075589571 0.2680821008441761 0.6851165976802136 Zn
atom_frac 0.0000000000000000 0.9986550000000002 0.3030300000000000 Zn
    constrain_relaxation .true.
atom_frac 0.0000000000000000 0.6925950000000000 0.3030300000000000 O
    constrain_relaxation .true.
atom_frac 0.1249900000000000 0.9425950000000000 0.3333300000000000 O
    constrain_relaxation .true.
atom_frac 0.1250000000000000 0.7486550000000000 0.3333300000000000 Zn
    constrain_relaxation .true.
atom_frac 0.1250000000000000 0.9986550000000002 0.3939400000000000 Zn
    constrain_relaxation .true.
atom_frac 0.1250000000000000 0.6925950000000000 0.3939400000000000 O
    constrain_relaxation .true.
atom_frac 0.2499900000000000 0.9425950000000000 0.4242400000000000 O
    constrain_relaxation .true.
atom_frac 0.0000000000000000 0.7486550000000000 0.4242400000000000 Zn
    constrain_relaxation .true.
atom_frac 0.0000000000000000 0.9986550000000002 0.4848499999999997 Zn
    constrain_relaxation .true.
atom_frac 0.0000000000000000 0.6925950000000000 0.4848499999999997 O
    constrain_relaxation .true.
atom_frac 0.1249900000000000 0.9425950000000000 0.5151500000000000 O
    constrain_relaxation .true.
atom_frac 0.1250000000000000 0.7486550000000000 0.5151500000000000 Zn
    constrain_relaxation .true.
atom_frac 0.1250000000000000 0.9986550000000002 0.5757600000000000 Zn
    constrain_relaxation .true.
atom_frac 0.1250000000000000 0.6925950000000000 0.5757600000000000 O
    constrain_relaxation .true.
atom_frac 0.2494892094797269 0.9437114608925040 0.6053039592230403 O
atom_frac 0.0005906702079355 0.7544721390253101 0.6042062481803884 Zn
atom_frac 0.0003704819405030 1.0012202405451269 0.6694027540414745 Zn
atom_frac 0.0000289328646103 0.6931459614539240 0.6667335164406910 O
atom_frac 0.1259765637130825 0.9440561967316315 0.6939511962030389 O
atom_frac 0.1282777348275245 0.7702894119976668 0.6853793969815852 Zn
atom_frac 0.2500000000000000 0.4986550000000000 0.3030300000000000 Zn
    constrain_relaxation .true.
atom_frac 0.2500000000000000 0.1925950000000000 0.3030300000000000 O
    constrain_relaxation .true.
atom_frac 0.3749900000000000 0.4425950000000000 0.3333300000000000 O
    constrain_relaxation .true.
atom_frac 0.3750000000000000 0.2486550000000000 0.3333300000000000 Zn
    constrain_relaxation .true.
atom_frac 0.3750000000000000 0.4986550000000000 0.3939400000000000 Zn
    constrain_relaxation .true.
atom_frac 0.3750000000000000 0.1925950000000000 0.3939400000000000 O
    constrain_relaxation .true.
atom_frac 0.4999900000000000 0.4425950000000000 0.4242400000000000 O
    constrain_relaxation .true.
atom_frac 0.2500000000000000 0.2486550000000000 0.4242400000000000 Zn
    constrain_relaxation .true.
atom_frac 0.2500000000000000 0.4986550000000000 0.4848499999999997 Zn
    constrain_relaxation .true.
atom_frac 0.2500000000000000 0.1925950000000000 0.4848499999999997 O
    constrain_relaxation .true.
atom_frac 0.3749900000000000 0.4425950000000000 0.5151500000000000 O
    constrain_relaxation .true.
atom_frac 0.3750000000000000 0.2486550000000000 0.5151500000000000 Zn
    constrain_relaxation .true.
atom_frac 0.3750000000000000 0.4986550000000000 0.5757600000000000 Zn
    constrain_relaxation .true.
atom_frac 0.3750000000000000 0.1925950000000000 0.5757600000000000 O
    constrain_relaxation .true.
atom_frac 0.5030359638437113 0.4393283013852460 0.6057409443007209 O
atom_frac 0.2497975681245313 0.2526118866517026 0.6040828721644602 Zn
atom_frac 0.2484981007552380 0.5054782134864190 0.6689813324911884 Zn
atom_frac 0.2523681723416357 0.1901594733259442 0.6664630316317273 O
atom_frac 0.3774305105661047 0.4490869046900115 0.6928480989653963 O
atom_frac 0.3742421186769697 0.2750574650692035 0.6846007916550905 Zn
atom_frac 0.2500000000000000 0.9986550000000002 0.3030300000000000 Zn
    constrain_relaxation .true.
atom_frac 0.2500000000000000 0.6925950000000000 0.3030300000000000 O
    constrain_relaxation .true.
atom_frac 0.3749900000000000 0.9425950000000000 0.3333300000000000 O
    constrain_relaxation .true.
atom_frac 0.3750000000000000 0.7486550000000000 0.3333300000000000 Zn
    constrain_relaxation .true.
atom_frac 0.3750000000000000 0.9986550000000002 0.3939400000000000 Zn
    constrain_relaxation .true.
atom_frac 0.3750000000000000 0.6925950000000000 0.3939400000000000 O
    constrain_relaxation .true.
atom_frac 0.4999900000000000 0.9425950000000000 0.4242400000000000 O
    constrain_relaxation .true.
atom_frac 0.2500000000000000 0.7486550000000000 0.4242400000000000 Zn
    constrain_relaxation .true.
atom_frac 0.2500000000000000 0.9986550000000002 0.4848499999999997 Zn
    constrain_relaxation .true.
atom_frac 0.2500000000000000 0.6925950000000000 0.4848499999999997 O
    constrain_relaxation .true.
atom_frac 0.3749900000000000 0.9425950000000000 0.5151500000000000 O
    constrain_relaxation .true.
atom_frac 0.3750000000000000 0.7486550000000000 0.5151500000000000 Zn
    constrain_relaxation .true.
atom_frac 0.3750000000000000 0.9986550000000002 0.5757600000000000 Zn
    constrain_relaxation .true.
atom_frac 0.3750000000000000 0.6925950000000000 0.5757600000000000 O
    constrain_relaxation .true.
atom_frac 0.5001411787504434 0.9473597839246842 0.6039825406343088 O
atom_frac 0.2511654953510233 0.7557892161521131 0.6038149863312201 Zn
atom_frac 0.2534939079798727 0.9981734981150191 0.6697894451360471 Zn
atom_frac 0.2516146827674647 0.6918133048567775 0.6654364919437031 O
atom_frac 0.3774012716034421 0.9316517527865594 0.6919099922390043 O
atom_frac 0.3921352771500872 0.7585252148903987 0.6773757374919589 Zn
atom_frac 0.5000000000000000 0.4986550000000000 0.3030300000000000 Zn
    constrain_relaxation .true.
atom_frac 0.5000000000000000 0.1925950000000000 0.3030300000000000 O
    constrain_relaxation .true.
atom_frac 0.6249900000000000 0.4425950000000000 0.3333300000000000 O
    constrain_relaxation .true.
atom_frac 0.6250000000000000 0.2486550000000000 0.3333300000000000 Zn
    constrain_relaxation .true.
atom_frac 0.6250000000000000 0.4986550000000000 0.3939400000000000 Zn
    constrain_relaxation .true.
atom_frac 0.6250000000000000 0.1925950000000000 0.3939400000000000 O
    constrain_relaxation .true.
atom_frac 0.7499899999999999 0.4425950000000000 0.4242400000000000 O
    constrain_relaxation .true.
atom_frac 0.5000000000000000 0.2486550000000000 0.4242400000000000 Zn
    constrain_relaxation .true.
atom_frac 0.5000000000000000 0.4986550000000000 0.4848499999999997 Zn
    constrain_relaxation .true.
atom_frac 0.5000000000000000 0.1925950000000000 0.4848499999999997 O
    constrain_relaxation .true.
atom_frac 0.6249900000000000 0.4425950000000000 0.5151500000000000 O
    constrain_relaxation .true.
atom_frac 0.6250000000000000 0.2486550000000000 0.5151500000000000 Zn
    constrain_relaxation .true.
atom_frac 0.6250000000000000 0.4986550000000000 0.5757600000000000 Zn
    constrain_relaxation .true.
atom_frac 0.6250000000000000 0.1925950000000000 0.5757600000000000 O
    constrain_relaxation .true.
atom_frac 0.7467771462281900 0.4406706119668082 0.6080501902978349 O
atom_frac 0.4996315446984825 0.2510646479158839 0.6030048343086860 Zn
atom_frac 0.4840699639328140 0.5301018038529692 0.6604958989631649 Zn
atom_frac 0.5013699369072872 0.2000705229059679 0.6666751453826548 O
atom_frac 0.6132721368048242 0.4678587868919996 0.7070663879122987 O
atom_frac 0.6221761697608722 0.2774024113352609 0.6877548688792872 Zn
atom_frac 0.5000000000000000 0.9986550000000002 0.3030300000000000 Zn
    constrain_relaxation .true.
atom_frac 0.5000000000000000 0.6925950000000000 0.3030300000000000 O
    constrain_relaxation .true.
atom_frac 0.6249900000000000 0.9425950000000000 0.3333300000000000 O
    constrain_relaxation .true.
atom_frac 0.6250000000000000 0.7486550000000000 0.3333300000000000 Zn
    constrain_relaxation .true.
atom_frac 0.6250000000000000 0.9986550000000002 0.3939400000000000 Zn
    constrain_relaxation .true.
atom_frac 0.6250000000000000 0.6925950000000000 0.3939400000000000 O
    constrain_relaxation .true.
atom_frac 0.7499899999999999 0.9425950000000000 0.4242400000000000 O
    constrain_relaxation .true.
atom_frac 0.5000000000000000 0.7486550000000000 0.4242400000000000 Zn
    constrain_relaxation .true.
atom_frac 0.5000000000000000 0.9986550000000002 0.4848499999999997 Zn
    constrain_relaxation .true.
atom_frac 0.5000000000000000 0.6925950000000000 0.4848499999999997 O
    constrain_relaxation .true.
atom_frac 0.6249900000000000 0.9425950000000000 0.5151500000000000 O
    constrain_relaxation .true.
atom_frac 0.6250000000000000 0.7486550000000000 0.5151500000000000 Zn
    constrain_relaxation .true.
atom_frac 0.6250000000000000 0.9986550000000002 0.5757600000000000 Zn
    constrain_relaxation .true.
atom_frac 0.6250000000000000 0.6925950000000000 0.5757600000000000 O
    constrain_relaxation .true.
atom_frac 0.7506828688625909 0.9442172063587631 0.6055786850452082 O
atom_frac 0.4982622383424910 0.7514202576783814 0.6092586670753716 Zn
atom_frac 0.4987815626603666 1.0021547377570703 0.6681404105369730 Zn
atom_frac 0.6232419746092915 0.9410476982455517 0.6918546395331859 O
atom_frac 0.6121180790942710 0.7672499825366499 0.6758097171049713 Zn
atom_frac 0.7500000000000000 0.4986550000000000 0.3030300000000000 Zn
    constrain_relaxation .true.
atom_frac 0.7500000000000000 0.1925950000000000 0.3030300000000000 O
    constrain_relaxation .true.
atom_frac 0.8749900000000000 0.4425950000000000 0.3333300000000000 O
    constrain_relaxation .true.
atom_frac 0.8749999999999999 0.2486550000000000 0.3333300000000000 Zn
    constrain_relaxation .true.
atom_frac 0.8749999999999999 0.4986550000000000 0.3939400000000000 Zn
    constrain_relaxation .true.
atom_frac 0.8749999999999999 0.1925950000000000 0.3939400000000000 O
    constrain_relaxation .true.
atom_frac 0.9999900000000002 0.4425950000000000 0.4242400000000000 O
    constrain_relaxation .true.
atom_frac 0.7500000000000000 0.2486550000000000 0.4242400000000000 Zn
    constrain_relaxation .true.
atom_frac 0.7500000000000000 0.4986550000000000 0.4848499999999997 Zn
    constrain_relaxation .true.
atom_frac 0.7500000000000000 0.1925950000000000 0.4848499999999997 O
    constrain_relaxation .true.
atom_frac 0.8749900000000000 0.4425950000000000 0.5151500000000000 O
    constrain_relaxation .true.
atom_frac 0.8749999999999999 0.2486550000000000 0.5151500000000000 Zn
    constrain_relaxation .true.
atom_frac 0.8749999999999999 0.4986550000000000 0.5757600000000000 Zn
    constrain_relaxation .true.
atom_frac 0.8749999999999999 0.1925950000000000 0.5757600000000000 O
    constrain_relaxation .true.
atom_frac 0.9989754136290473 0.4424549175158813 0.6059672384221685 O
atom_frac 0.7499380723336515 0.2513787831798426 0.6035575636420848 Zn
atom_frac 0.7553851325041659 0.5098407240436974 0.6679581999135522 Zn
atom_frac 0.7449152468868239 0.2004657336733003 0.6676214594657559 O
atom_frac 0.8729523025389718 0.4417719775144653 0.6943846668633341 O
atom_frac 0.8755661263495896 0.2680711706224859 0.6852951727914709 Zn
atom_frac 0.7500000000000000 0.9986550000000002 0.3030300000000000 Zn
    constrain_relaxation .true.
atom_frac 0.7500000000000000 0.6925950000000000 0.3030300000000000 O
    constrain_relaxation .true.
atom_frac 0.8749900000000000 0.9425950000000000 0.3333300000000000 O
    constrain_relaxation .true.
atom_frac 0.8749999999999999 0.7486550000000000 0.3333300000000000 Zn
    constrain_relaxation .true.
atom_frac 0.8749999999999999 0.9986550000000002 0.3939400000000000 Zn
    constrain_relaxation .true.
atom_frac 0.8749999999999999 0.6925950000000000 0.3939400000000000 O
    constrain_relaxation .true.
atom_frac 0.9999900000000002 0.9425950000000000 0.4242400000000000 O
    constrain_relaxation .true.
atom_frac 0.7500000000000000 0.7486550000000000 0.4242400000000000 Zn
    constrain_relaxation .true.
atom_frac 0.7500000000000000 0.9986550000000002 0.4848499999999997 Zn
    constrain_relaxation .true.
atom_frac 0.7500000000000000 0.6925950000000000 0.4848499999999997 O
    constrain_relaxation .true.
atom_frac 0.8749900000000000 0.9425950000000000 0.5151500000000000 O
    constrain_relaxation .true.
atom_frac 0.8749999999999999 0.7486550000000000 0.5151500000000000 Zn
    constrain_relaxation .true.
atom_frac 0.8749999999999999 0.9986550000000002 0.5757600000000000 Zn
    constrain_relaxation .true.
atom_frac 0.8749999999999999 0.6925950000000000 0.5757600000000000 O
    constrain_relaxation .true.
atom_frac 0.9996654241426620 0.9424299248673262 0.6056573368135350 O
atom_frac 0.7496709123210376 0.7563724773039412 0.6025522608159101 Zn
atom_frac 0.7482592205647282 1.0012690027924420 0.6694815810095194 Zn
atom_frac 0.7505834049412543 0.6921321968632995 0.6643769534387959 O
atom_frac 0.8740000087175728 0.9450739558643928 0.6938227270525734 O
atom_frac 0.8736105309316448 0.7712252596645722 0.6853321784817863 Zn
atom_frac 0.5689510498180154 0.5550987299487468 0.7357436026618072 C
atom_frac 0.5710509836058296 0.5389620878557160 0.7731417862436752 O
atom_frac 0.5299166138338729 0.6510304498948034 0.7146271955123001 O
