#=======================================================
# FHI-aims file: ./geometry.in
# Created using the Atomic Simulation Environment (ASE)
# Sat Jul  1 14:30:14 2023
#=======================================================
lattice_vector 13.0879999999999992 0.0000000000000000 0.0000000000000000 
lattice_vector 0.0000000000000000 10.5478199999999998 0.0000000000000000 
lattice_vector 0.0000000000000000 0.0000000000000000 31.1700000000000017 
atom_frac 0.0000000000000000 0.4986550000000000 0.3030300000000000 Zn
    constrain_relaxation .true.
atom_frac 0.0000000000000000 0.1925950000000000 0.3030300000000000 O
    constrain_relaxation .true.
atom_frac 0.1249900000000000 0.4425950000000000 0.3333300000000000 O
    constrain_relaxation .true.
atom_frac 0.1250000000000000 0.2486550000000000 0.3333300000000000 Zn
    constrain_relaxation .true.
atom_frac 0.1250000000000000 0.4986550000000000 0.3939400000000000 Zn
    constrain_relaxation .true.
atom_frac 0.1250000000000000 0.1925950000000000 0.3939400000000000 O
    constrain_relaxation .true.
atom_frac 0.2499900000000000 0.4425950000000000 0.4242400000000000 O
    constrain_relaxation .true.
atom_frac 0.0000000000000000 0.2486550000000000 0.4242400000000000 Zn
    constrain_relaxation .true.
atom_frac 0.0000000000000000 0.4986550000000000 0.4848499999999997 Zn
    constrain_relaxation .true.
atom_frac 0.0000000000000000 0.1925950000000000 0.4848499999999997 O
    constrain_relaxation .true.
atom_frac 0.1249900000000000 0.4425950000000000 0.5151500000000000 O
    constrain_relaxation .true.
atom_frac 0.1250000000000000 0.2486550000000000 0.5151500000000000 Zn
    constrain_relaxation .true.
atom_frac 0.1250000000000000 0.4986550000000000 0.5757600000000000 Zn
    constrain_relaxation .true.
atom_frac 0.1250000000000000 0.1925950000000000 0.5757600000000000 O
    constrain_relaxation .true.
atom_frac 0.2501540212208509 0.4416019821316802 0.6057125656858624 O
atom_frac 0.0003703479134525 0.2555831833292687 0.6039462128180731 Zn
atom_frac 0.0004891678328911 0.5059694557496073 0.6703266196452895 Zn
atom_frac -0.0000531636088247 0.1958433520520009 0.6662427623940690 O
atom_frac 0.1247083931575855 0.4434146221029254 0.6946561259242722 O
atom_frac 0.1273971944050662 0.2701896884089640 0.6854114941280669 Zn
atom_frac 0.0000000000000000 0.9986550000000002 0.3030300000000000 Zn
    constrain_relaxation .true.
atom_frac 0.0000000000000000 0.6925950000000000 0.3030300000000000 O
    constrain_relaxation .true.
atom_frac 0.1249900000000000 0.9425950000000000 0.3333300000000000 O
    constrain_relaxation .true.
atom_frac 0.1250000000000000 0.7486550000000000 0.3333300000000000 Zn
    constrain_relaxation .true.
atom_frac 0.1250000000000000 0.9986550000000002 0.3939400000000000 Zn
    constrain_relaxation .true.
atom_frac 0.1250000000000000 0.6925950000000000 0.3939400000000000 O
    constrain_relaxation .true.
atom_frac 0.2499900000000000 0.9425950000000000 0.4242400000000000 O
    constrain_relaxation .true.
atom_frac 0.0000000000000000 0.7486550000000000 0.4242400000000000 Zn
    constrain_relaxation .true.
atom_frac 0.0000000000000000 0.9986550000000002 0.4848499999999997 Zn
    constrain_relaxation .true.
atom_frac 0.0000000000000000 0.6925950000000000 0.4848499999999997 O
    constrain_relaxation .true.
atom_frac 0.1249900000000000 0.9425950000000000 0.5151500000000000 O
    constrain_relaxation .true.
atom_frac 0.1250000000000000 0.7486550000000000 0.5151500000000000 Zn
    constrain_relaxation .true.
atom_frac 0.1250000000000000 0.9986550000000002 0.5757600000000000 Zn
    constrain_relaxation .true.
atom_frac 0.1250000000000000 0.6925950000000000 0.5757600000000000 O
    constrain_relaxation .true.
atom_frac 0.2497970890456510 0.9448754632997953 0.6054727375101696 O
atom_frac 0.0004954748326217 0.7548061183215155 0.6040128271926601 Zn
atom_frac -0.0007475950640908 1.0069166489368757 0.6693717288205323 Zn
atom_frac 0.0014719554777203 0.6947630651561646 0.6668292779491255 O
atom_frac 0.1251144207576699 0.9506001676658205 0.6942384457164077 O
atom_frac 0.1283080045221730 0.7771023427804660 0.6852638475394851 Zn
atom_frac 0.2500000000000000 0.4986550000000000 0.3030300000000000 Zn
    constrain_relaxation .true.
atom_frac 0.2500000000000000 0.1925950000000000 0.3030300000000000 O
    constrain_relaxation .true.
atom_frac 0.3749900000000000 0.4425950000000000 0.3333300000000000 O
    constrain_relaxation .true.
atom_frac 0.3750000000000000 0.2486550000000000 0.3333300000000000 Zn
    constrain_relaxation .true.
atom_frac 0.3750000000000000 0.4986550000000000 0.3939400000000000 Zn
    constrain_relaxation .true.
atom_frac 0.3750000000000000 0.1925950000000000 0.3939400000000000 O
    constrain_relaxation .true.
atom_frac 0.4999900000000000 0.4425950000000000 0.4242400000000000 O
    constrain_relaxation .true.
atom_frac 0.2500000000000000 0.2486550000000000 0.4242400000000000 Zn
    constrain_relaxation .true.
atom_frac 0.2500000000000000 0.4986550000000000 0.4848499999999997 Zn
    constrain_relaxation .true.
atom_frac 0.2500000000000000 0.1925950000000000 0.4848499999999997 O
    constrain_relaxation .true.
atom_frac 0.3749900000000000 0.4425950000000000 0.5151500000000000 O
    constrain_relaxation .true.
atom_frac 0.3750000000000000 0.2486550000000000 0.5151500000000000 Zn
    constrain_relaxation .true.
atom_frac 0.3750000000000000 0.4986550000000000 0.5757600000000000 Zn
    constrain_relaxation .true.
atom_frac 0.3750000000000000 0.1925950000000000 0.5757600000000000 O
    constrain_relaxation .true.
atom_frac 0.5006622443825823 0.4421765460082114 0.6058867251470903 O
atom_frac 0.2499802671166793 0.2539096042701030 0.6042739350090048 Zn
atom_frac 0.2470402411477921 0.5087394753071491 0.6693966023566517 Zn
atom_frac 0.2535733031602528 0.1937705989007717 0.6669569347673145 O
atom_frac 0.3785488980752043 0.4551813835863246 0.6915738469178118 O
atom_frac 0.3771573315259906 0.2805534402568918 0.6843903526305567 Zn
atom_frac 0.2500000000000000 0.9986550000000002 0.3030300000000000 Zn
    constrain_relaxation .true.
atom_frac 0.2500000000000000 0.6925950000000000 0.3030300000000000 O
    constrain_relaxation .true.
atom_frac 0.3749900000000000 0.9425950000000000 0.3333300000000000 O
    constrain_relaxation .true.
atom_frac 0.3750000000000000 0.7486550000000000 0.3333300000000000 Zn
    constrain_relaxation .true.
atom_frac 0.3750000000000000 0.9986550000000002 0.3939400000000000 Zn
    constrain_relaxation .true.
atom_frac 0.3750000000000000 0.6925950000000000 0.3939400000000000 O
    constrain_relaxation .true.
atom_frac 0.4999900000000000 0.9425950000000000 0.4242400000000000 O
    constrain_relaxation .true.
atom_frac 0.2500000000000000 0.7486550000000000 0.4242400000000000 Zn
    constrain_relaxation .true.
atom_frac 0.2500000000000000 0.9986550000000002 0.4848499999999997 Zn
    constrain_relaxation .true.
atom_frac 0.2500000000000000 0.6925950000000000 0.4848499999999997 O
    constrain_relaxation .true.
atom_frac 0.3749900000000000 0.9425950000000000 0.5151500000000000 O
    constrain_relaxation .true.
atom_frac 0.3750000000000000 0.7486550000000000 0.5151500000000000 Zn
    constrain_relaxation .true.
atom_frac 0.3750000000000000 0.9986550000000002 0.5757600000000000 Zn
    constrain_relaxation .true.
atom_frac 0.3750000000000000 0.6925950000000000 0.5757600000000000 O
    constrain_relaxation .true.
atom_frac 0.5005771988915524 0.9402856437277687 0.6050362885190722 O
atom_frac 0.2504423119561682 0.7562680024317765 0.6037930718027419 Zn
atom_frac 0.2538224971723274 1.0006776422075796 0.6698548961001799 Zn
atom_frac 0.2495057613185423 0.6949202591725842 0.6654099249592150 O
atom_frac 0.3770480025386712 0.9261363305084250 0.6910580837057011 O
atom_frac 0.3924217639550113 0.7543576123194119 0.6772391407282978 Zn
atom_frac 0.5000000000000000 0.4986550000000000 0.3030300000000000 Zn
    constrain_relaxation .true.
atom_frac 0.5000000000000000 0.1925950000000000 0.3030300000000000 O
    constrain_relaxation .true.
atom_frac 0.6249900000000000 0.4425950000000000 0.3333300000000000 O
    constrain_relaxation .true.
atom_frac 0.6250000000000000 0.2486550000000000 0.3333300000000000 Zn
    constrain_relaxation .true.
atom_frac 0.6250000000000000 0.4986550000000000 0.3939400000000000 Zn
    constrain_relaxation .true.
atom_frac 0.6250000000000000 0.1925950000000000 0.3939400000000000 O
    constrain_relaxation .true.
atom_frac 0.7499899999999999 0.4425950000000000 0.4242400000000000 O
    constrain_relaxation .true.
atom_frac 0.5000000000000000 0.2486550000000000 0.4242400000000000 Zn
    constrain_relaxation .true.
atom_frac 0.5000000000000000 0.4986550000000000 0.4848499999999997 Zn
    constrain_relaxation .true.
atom_frac 0.5000000000000000 0.1925950000000000 0.4848499999999997 O
    constrain_relaxation .true.
atom_frac 0.6249900000000000 0.4425950000000000 0.5151500000000000 O
    constrain_relaxation .true.
atom_frac 0.6250000000000000 0.2486550000000000 0.5151500000000000 Zn
    constrain_relaxation .true.
atom_frac 0.6250000000000000 0.4986550000000000 0.5757600000000000 Zn
    constrain_relaxation .true.
atom_frac 0.6250000000000000 0.1925950000000000 0.5757600000000000 O
    constrain_relaxation .true.
atom_frac 0.7487701960480515 0.4394078732964269 0.6060120061142603 O
atom_frac 0.4996897236581574 0.2528738320356211 0.6038633968655597 Zn
atom_frac 0.4797198172661170 0.5485035653682604 0.6590316330162960 Zn
atom_frac 0.5012376194132476 0.1950467296084250 0.6672920325684348 O
atom_frac 0.6153978055800475 0.4722481767831064 0.6895949519404593 O
atom_frac 0.6203213059689169 0.2793382439520497 0.6886157829808652 Zn
atom_frac 0.5000000000000000 0.9986550000000002 0.3030300000000000 Zn
    constrain_relaxation .true.
atom_frac 0.5000000000000000 0.6925950000000000 0.3030300000000000 O
    constrain_relaxation .true.
atom_frac 0.6249900000000000 0.9425950000000000 0.3333300000000000 O
    constrain_relaxation .true.
atom_frac 0.6250000000000000 0.7486550000000000 0.3333300000000000 Zn
    constrain_relaxation .true.
atom_frac 0.6250000000000000 0.9986550000000002 0.3939400000000000 Zn
    constrain_relaxation .true.
atom_frac 0.6250000000000000 0.6925950000000000 0.3939400000000000 O
    constrain_relaxation .true.
atom_frac 0.7499899999999999 0.9425950000000000 0.4242400000000000 O
    constrain_relaxation .true.
atom_frac 0.5000000000000000 0.7486550000000000 0.4242400000000000 Zn
    constrain_relaxation .true.
atom_frac 0.5000000000000000 0.9986550000000002 0.4848499999999997 Zn
    constrain_relaxation .true.
atom_frac 0.5000000000000000 0.6925950000000000 0.4848499999999997 O
    constrain_relaxation .true.
atom_frac 0.6249900000000000 0.9425950000000000 0.5151500000000000 O
    constrain_relaxation .true.
atom_frac 0.6250000000000000 0.7486550000000000 0.5151500000000000 Zn
    constrain_relaxation .true.
atom_frac 0.6250000000000000 0.9986550000000002 0.5757600000000000 Zn
    constrain_relaxation .true.
atom_frac 0.6250000000000000 0.6925950000000000 0.5757600000000000 O
    constrain_relaxation .true.
atom_frac 0.7500672498984885 0.9465897567188013 0.6059946261066582 O
atom_frac 0.5013286443002004 0.7505894456084110 0.6085960795398407 Zn
atom_frac 0.4997966706951354 0.9991226792016232 0.6691402920910073 Zn
atom_frac 0.6227697937123100 0.9339245443700571 0.6936284074963659 O
atom_frac 0.6244716050551427 0.7572308453860292 0.6971140257515136 Zn
atom_frac 0.7500000000000000 0.4986550000000000 0.3030300000000000 Zn
    constrain_relaxation .true.
atom_frac 0.7500000000000000 0.1925950000000000 0.3030300000000000 O
    constrain_relaxation .true.
atom_frac 0.8749900000000000 0.4425950000000000 0.3333300000000000 O
    constrain_relaxation .true.
atom_frac 0.8749999999999999 0.2486550000000000 0.3333300000000000 Zn
    constrain_relaxation .true.
atom_frac 0.8749999999999999 0.4986550000000000 0.3939400000000000 Zn
    constrain_relaxation .true.
atom_frac 0.8749999999999999 0.1925950000000000 0.3939400000000000 O
    constrain_relaxation .true.
atom_frac 0.9999900000000002 0.4425950000000000 0.4242400000000000 O
    constrain_relaxation .true.
atom_frac 0.7500000000000000 0.2486550000000000 0.4242400000000000 Zn
    constrain_relaxation .true.
atom_frac 0.7500000000000000 0.4986550000000000 0.4848499999999997 Zn
    constrain_relaxation .true.
atom_frac 0.7500000000000000 0.1925950000000000 0.4848499999999997 O
    constrain_relaxation .true.
atom_frac 0.8749900000000000 0.4425950000000000 0.5151500000000000 O
    constrain_relaxation .true.
atom_frac 0.8749999999999999 0.2486550000000000 0.5151500000000000 Zn
    constrain_relaxation .true.
atom_frac 0.8749999999999999 0.4986550000000000 0.5757600000000000 Zn
    constrain_relaxation .true.
atom_frac 0.8749999999999999 0.1925950000000000 0.5757600000000000 O
    constrain_relaxation .true.
atom_frac 0.9992037830011133 0.4435672427093643 0.6062370587389166 O
atom_frac 0.7498020136737010 0.2501715761493304 0.6041192898954710 Zn
atom_frac 0.7600144879304295 0.5144551216973389 0.6646110455335575 Zn
atom_frac 0.7439869695239256 0.1989186762167170 0.6680541075275686 O
atom_frac 0.8722860780521173 0.4445050950247988 0.6945201371363688 O
atom_frac 0.8741863713441899 0.2702940710541850 0.6858136824985060 Zn
atom_frac 0.7500000000000000 0.9986550000000002 0.3030300000000000 Zn
    constrain_relaxation .true.
atom_frac 0.7500000000000000 0.6925950000000000 0.3030300000000000 O
    constrain_relaxation .true.
atom_frac 0.8749900000000000 0.9425950000000000 0.3333300000000000 O
    constrain_relaxation .true.
atom_frac 0.8749999999999999 0.7486550000000000 0.3333300000000000 Zn
    constrain_relaxation .true.
atom_frac 0.8749999999999999 0.9986550000000002 0.3939400000000000 Zn
    constrain_relaxation .true.
atom_frac 0.8749999999999999 0.6925950000000000 0.3939400000000000 O
    constrain_relaxation .true.
atom_frac 0.9999900000000002 0.9425950000000000 0.4242400000000000 O
    constrain_relaxation .true.
atom_frac 0.7500000000000000 0.7486550000000000 0.4242400000000000 Zn
    constrain_relaxation .true.
atom_frac 0.7500000000000000 0.9986550000000002 0.4848499999999997 Zn
    constrain_relaxation .true.
atom_frac 0.7500000000000000 0.6925950000000000 0.4848499999999997 O
    constrain_relaxation .true.
atom_frac 0.8749900000000000 0.9425950000000000 0.5151500000000000 O
    constrain_relaxation .true.
atom_frac 0.8749999999999999 0.7486550000000000 0.5151500000000000 Zn
    constrain_relaxation .true.
atom_frac 0.8749999999999999 0.9986550000000002 0.5757600000000000 Zn
    constrain_relaxation .true.
atom_frac 0.8749999999999999 0.6925950000000000 0.5757600000000000 O
    constrain_relaxation .true.
atom_frac 0.9996366402796429 0.9430317068814670 0.6059208473365785 O
atom_frac 0.7488464432486110 0.7587557396244349 0.6041076964646271 Zn
atom_frac 0.7458567650009680 1.0024410624891298 0.6697602346606218 Zn
atom_frac 0.7515871454878960 0.6973118524158397 0.6656119599213637 O
atom_frac 0.8734932112439596 0.9496408200171750 0.6946620006704924 O
atom_frac 0.8766311408503563 0.7757208773272658 0.6855069655975028 Zn
atom_frac 0.6026705067963706 0.5063564068697537 0.7334584911741514 C
atom_frac 0.5998909372801848 0.4170173319199464 0.7582199751449767 O
atom_frac 0.5954060041487852 0.6256863384112155 0.7402176281125843 O
