#=======================================================
# FHI-aims file: ./geometry.in
# Created using the Atomic Simulation Environment (ASE)
# Sun Jul  2 19:55:44 2023
#=======================================================
lattice_vector 13.0879999999999992 0.0000000000000000 0.0000000000000000 
lattice_vector 0.0000000000000000 10.5478199999999998 0.0000000000000000 
lattice_vector 0.0000000000000000 0.0000000000000000 31.1700000000000017 
atom_frac 0.0000000000000000 0.4986550000000000 0.3030300000000000 Zn
    constrain_relaxation .true.
atom_frac 0.0000000000000000 0.1925950000000000 0.3030300000000000 O
    constrain_relaxation .true.
atom_frac 0.1249900000000000 0.4425950000000000 0.3333300000000000 O
    constrain_relaxation .true.
atom_frac 0.1250000000000000 0.2486550000000000 0.3333300000000000 Zn
    constrain_relaxation .true.
atom_frac 0.1250000000000000 0.4986550000000000 0.3939400000000000 Zn
    constrain_relaxation .true.
atom_frac 0.1250000000000000 0.1925950000000000 0.3939400000000000 O
    constrain_relaxation .true.
atom_frac 0.2499900000000000 0.4425950000000000 0.4242400000000000 O
    constrain_relaxation .true.
atom_frac 0.0000000000000000 0.2486550000000000 0.4242400000000000 Zn
    constrain_relaxation .true.
atom_frac 0.0000000000000000 0.4986550000000000 0.4848499999999997 Zn
    constrain_relaxation .true.
atom_frac 0.0000000000000000 0.1925950000000000 0.4848499999999997 O
    constrain_relaxation .true.
atom_frac 0.1249900000000000 0.4425950000000000 0.5151500000000000 O
    constrain_relaxation .true.
atom_frac 0.1250000000000000 0.2486550000000000 0.5151500000000000 Zn
    constrain_relaxation .true.
atom_frac 0.1250000000000000 0.4986550000000000 0.5757600000000000 Zn
    constrain_relaxation .true.
atom_frac 0.1250000000000000 0.1925950000000000 0.5757600000000000 O
    constrain_relaxation .true.
atom_frac 0.2498773916935962 0.4413967108814569 0.6055277085754952 O
atom_frac -0.0000300512537081 0.2556921857323187 0.6038943085639695 Zn
atom_frac 0.0014761114838506 0.5049378415083027 0.6704875210985474 Zn
atom_frac -0.0015200265676494 0.1952086124267627 0.6662055606644540 O
atom_frac 0.1253636331586430 0.4413612631643380 0.6949904478995104 O
atom_frac 0.1264747557969314 0.2675332736185242 0.6853012081951059 Zn
atom_frac 0.0000000000000000 0.9986550000000002 0.3030300000000000 Zn
    constrain_relaxation .true.
atom_frac 0.0000000000000000 0.6925950000000000 0.3030300000000000 O
    constrain_relaxation .true.
atom_frac 0.1249900000000000 0.9425950000000000 0.3333300000000000 O
    constrain_relaxation .true.
atom_frac 0.1250000000000000 0.7486550000000000 0.3333300000000000 Zn
    constrain_relaxation .true.
atom_frac 0.1250000000000000 0.9986550000000002 0.3939400000000000 Zn
    constrain_relaxation .true.
atom_frac 0.1250000000000000 0.6925950000000000 0.3939400000000000 O
    constrain_relaxation .true.
atom_frac 0.2499900000000000 0.9425950000000000 0.4242400000000000 O
    constrain_relaxation .true.
atom_frac 0.0000000000000000 0.7486550000000000 0.4242400000000000 Zn
    constrain_relaxation .true.
atom_frac 0.0000000000000000 0.9986550000000002 0.4848499999999997 Zn
    constrain_relaxation .true.
atom_frac 0.0000000000000000 0.6925950000000000 0.4848499999999997 O
    constrain_relaxation .true.
atom_frac 0.1249900000000000 0.9425950000000000 0.5151500000000000 O
    constrain_relaxation .true.
atom_frac 0.1250000000000000 0.7486550000000000 0.5151500000000000 Zn
    constrain_relaxation .true.
atom_frac 0.1250000000000000 0.9986550000000002 0.5757600000000000 Zn
    constrain_relaxation .true.
atom_frac 0.1250000000000000 0.6925950000000000 0.5757600000000000 O
    constrain_relaxation .true.
atom_frac 0.2499587262183629 0.9438067486682530 0.6054634857873663 O
atom_frac 0.0003340561619613 0.7539952747539822 0.6040492838596681 Zn
atom_frac 0.0009867452794092 1.0058301892746759 0.6690911368478767 Zn
atom_frac 0.0005717468622402 0.6950156461369424 0.6669463764392465 O
atom_frac 0.1260176956796665 0.9478842389662070 0.6944878364981074 O
atom_frac 0.1278032966187766 0.7738747623598199 0.6855037986328033 Zn
atom_frac 0.2500000000000000 0.4986550000000000 0.3030300000000000 Zn
    constrain_relaxation .true.
atom_frac 0.2500000000000000 0.1925950000000000 0.3030300000000000 O
    constrain_relaxation .true.
atom_frac 0.3749900000000000 0.4425950000000000 0.3333300000000000 O
    constrain_relaxation .true.
atom_frac 0.3750000000000000 0.2486550000000000 0.3333300000000000 Zn
    constrain_relaxation .true.
atom_frac 0.3750000000000000 0.4986550000000000 0.3939400000000000 Zn
    constrain_relaxation .true.
atom_frac 0.3750000000000000 0.1925950000000000 0.3939400000000000 O
    constrain_relaxation .true.
atom_frac 0.4999900000000000 0.4425950000000000 0.4242400000000000 O
    constrain_relaxation .true.
atom_frac 0.2500000000000000 0.2486550000000000 0.4242400000000000 Zn
    constrain_relaxation .true.
atom_frac 0.2500000000000000 0.4986550000000000 0.4848499999999997 Zn
    constrain_relaxation .true.
atom_frac 0.2500000000000000 0.1925950000000000 0.4848499999999997 O
    constrain_relaxation .true.
atom_frac 0.3749900000000000 0.4425950000000000 0.5151500000000000 O
    constrain_relaxation .true.
atom_frac 0.3750000000000000 0.2486550000000000 0.5151500000000000 Zn
    constrain_relaxation .true.
atom_frac 0.3750000000000000 0.4986550000000000 0.5757600000000000 Zn
    constrain_relaxation .true.
atom_frac 0.3750000000000000 0.1925950000000000 0.5757600000000000 O
    constrain_relaxation .true.
atom_frac 0.5000440427574675 0.4435161858223661 0.6055770474826622 O
atom_frac 0.2501166713122031 0.2534621336235812 0.6041341165993726 Zn
atom_frac 0.2473474705627065 0.5062922391137310 0.6692745568450470 Zn
atom_frac 0.2536748715050187 0.1922685615481727 0.6667904740432459 O
atom_frac 0.3797071269678386 0.4541644993075094 0.6907626702213806 O
atom_frac 0.3776747931262947 0.2796395218504719 0.6841404332888825 Zn
atom_frac 0.2500000000000000 0.9986550000000002 0.3030300000000000 Zn
    constrain_relaxation .true.
atom_frac 0.2500000000000000 0.6925950000000000 0.3030300000000000 O
    constrain_relaxation .true.
atom_frac 0.3749900000000000 0.9425950000000000 0.3333300000000000 O
    constrain_relaxation .true.
atom_frac 0.3750000000000000 0.7486550000000000 0.3333300000000000 Zn
    constrain_relaxation .true.
atom_frac 0.3750000000000000 0.9986550000000002 0.3939400000000000 Zn
    constrain_relaxation .true.
atom_frac 0.3750000000000000 0.6925950000000000 0.3939400000000000 O
    constrain_relaxation .true.
atom_frac 0.4999900000000000 0.9425950000000000 0.4242400000000000 O
    constrain_relaxation .true.
atom_frac 0.2500000000000000 0.7486550000000000 0.4242400000000000 Zn
    constrain_relaxation .true.
atom_frac 0.2500000000000000 0.9986550000000002 0.4848499999999997 Zn
    constrain_relaxation .true.
atom_frac 0.2500000000000000 0.6925950000000000 0.4848499999999997 O
    constrain_relaxation .true.
atom_frac 0.3749900000000000 0.9425950000000000 0.5151500000000000 O
    constrain_relaxation .true.
atom_frac 0.3750000000000000 0.7486550000000000 0.5151500000000000 Zn
    constrain_relaxation .true.
atom_frac 0.3750000000000000 0.9986550000000002 0.5757600000000000 Zn
    constrain_relaxation .true.
atom_frac 0.3750000000000000 0.6925950000000000 0.5757600000000000 O
    constrain_relaxation .true.
atom_frac 0.5007270130816421 0.9415605056449564 0.6053559838007021 O
atom_frac 0.2499773661702292 0.7556822898092869 0.6037429894122089 Zn
atom_frac 0.2542593525919319 1.0000327186685738 0.6697383095192919 Zn
atom_frac 0.2503873064541425 0.6942900227815409 0.6652045473661855 O
atom_frac 0.3786693190461454 0.9290445988654403 0.6912290224099638 O
atom_frac 0.3923014069119329 0.7578177310512616 0.6772264392592756 Zn
atom_frac 0.5000000000000000 0.4986550000000000 0.3030300000000000 Zn
    constrain_relaxation .true.
atom_frac 0.5000000000000000 0.1925950000000000 0.3030300000000000 O
    constrain_relaxation .true.
atom_frac 0.6249900000000000 0.4425950000000000 0.3333300000000000 O
    constrain_relaxation .true.
atom_frac 0.6250000000000000 0.2486550000000000 0.3333300000000000 Zn
    constrain_relaxation .true.
atom_frac 0.6250000000000000 0.4986550000000000 0.3939400000000000 Zn
    constrain_relaxation .true.
atom_frac 0.6250000000000000 0.1925950000000000 0.3939400000000000 O
    constrain_relaxation .true.
atom_frac 0.7499899999999999 0.4425950000000000 0.4242400000000000 O
    constrain_relaxation .true.
atom_frac 0.5000000000000000 0.2486550000000000 0.4242400000000000 Zn
    constrain_relaxation .true.
atom_frac 0.5000000000000000 0.4986550000000000 0.4848499999999997 Zn
    constrain_relaxation .true.
atom_frac 0.5000000000000000 0.1925950000000000 0.4848499999999997 O
    constrain_relaxation .true.
atom_frac 0.6249900000000000 0.4425950000000000 0.5151500000000000 O
    constrain_relaxation .true.
atom_frac 0.6250000000000000 0.2486550000000000 0.5151500000000000 Zn
    constrain_relaxation .true.
atom_frac 0.6250000000000000 0.4986550000000000 0.5757600000000000 Zn
    constrain_relaxation .true.
atom_frac 0.6250000000000000 0.1925950000000000 0.5757600000000000 O
    constrain_relaxation .true.
atom_frac 0.7498259448441817 0.4397884111731848 0.6052000297409985 O
atom_frac 0.5010800648050331 0.2535221196664746 0.6053539505491684 Zn
atom_frac 0.4770721195424414 0.5510642655343307 0.6584394025844716 Zn
atom_frac 0.5038581282819949 0.1949645115269876 0.6687285303726646 O
atom_frac 0.6185532786677808 0.4775331793346707 0.6847324687439739 O
atom_frac 0.6199500679366683 0.2739328354707722 0.6975411202263321 Zn
atom_frac 0.5000000000000000 0.9986550000000002 0.3030300000000000 Zn
    constrain_relaxation .true.
atom_frac 0.5000000000000000 0.6925950000000000 0.3030300000000000 O
    constrain_relaxation .true.
atom_frac 0.6249900000000000 0.9425950000000000 0.3333300000000000 O
    constrain_relaxation .true.
atom_frac 0.6250000000000000 0.7486550000000000 0.3333300000000000 Zn
    constrain_relaxation .true.
atom_frac 0.6250000000000000 0.9986550000000002 0.3939400000000000 Zn
    constrain_relaxation .true.
atom_frac 0.6250000000000000 0.6925950000000000 0.3939400000000000 O
    constrain_relaxation .true.
atom_frac 0.7499899999999999 0.9425950000000000 0.4242400000000000 O
    constrain_relaxation .true.
atom_frac 0.5000000000000000 0.7486550000000000 0.4242400000000000 Zn
    constrain_relaxation .true.
atom_frac 0.5000000000000000 0.9986550000000002 0.4848499999999997 Zn
    constrain_relaxation .true.
atom_frac 0.5000000000000000 0.6925950000000000 0.4848499999999997 O
    constrain_relaxation .true.
atom_frac 0.6249900000000000 0.9425950000000000 0.5151500000000000 O
    constrain_relaxation .true.
atom_frac 0.6250000000000000 0.7486550000000000 0.5151500000000000 Zn
    constrain_relaxation .true.
atom_frac 0.6250000000000000 0.9986550000000002 0.5757600000000000 Zn
    constrain_relaxation .true.
atom_frac 0.6250000000000000 0.6925950000000000 0.5757600000000000 O
    constrain_relaxation .true.
atom_frac 0.7498285363802502 0.9476558844857922 0.6063902338358899 O
atom_frac 0.5008370023626143 0.7529370969179284 0.6072210764440744 Zn
atom_frac 0.5021078046899839 1.0021850696907930 0.6693603503850583 Zn
atom_frac 0.6233936868128116 0.9280597405241068 0.6938616418777340 O
atom_frac 0.6279008856098002 0.7519681304358139 0.7002677807846890 Zn
atom_frac 0.7500000000000000 0.4986550000000000 0.3030300000000000 Zn
    constrain_relaxation .true.
atom_frac 0.7500000000000000 0.1925950000000000 0.3030300000000000 O
    constrain_relaxation .true.
atom_frac 0.8749900000000000 0.4425950000000000 0.3333300000000000 O
    constrain_relaxation .true.
atom_frac 0.8749999999999999 0.2486550000000000 0.3333300000000000 Zn
    constrain_relaxation .true.
atom_frac 0.8749999999999999 0.4986550000000000 0.3939400000000000 Zn
    constrain_relaxation .true.
atom_frac 0.8749999999999999 0.1925950000000000 0.3939400000000000 O
    constrain_relaxation .true.
atom_frac 0.9999900000000002 0.4425950000000000 0.4242400000000000 O
    constrain_relaxation .true.
atom_frac 0.7500000000000000 0.2486550000000000 0.4242400000000000 Zn
    constrain_relaxation .true.
atom_frac 0.7500000000000000 0.4986550000000000 0.4848499999999997 Zn
    constrain_relaxation .true.
atom_frac 0.7500000000000000 0.1925950000000000 0.4848499999999997 O
    constrain_relaxation .true.
atom_frac 0.8749900000000000 0.4425950000000000 0.5151500000000000 O
    constrain_relaxation .true.
atom_frac 0.8749999999999999 0.2486550000000000 0.5151500000000000 Zn
    constrain_relaxation .true.
atom_frac 0.8749999999999999 0.4986550000000000 0.5757600000000000 Zn
    constrain_relaxation .true.
atom_frac 0.8749999999999999 0.1925950000000000 0.5757600000000000 O
    constrain_relaxation .true.
atom_frac 0.9994836179884270 0.4438263147556950 0.6063226557809362 O
atom_frac 0.7484642569703951 0.2501650212993403 0.6057369322716066 Zn
atom_frac 0.7657038121646428 0.5161625737205815 0.6625698262745178 Zn
atom_frac 0.7411089919283427 0.1996905361367659 0.6700746330013017 O
atom_frac 0.8740817310055417 0.4449264335708570 0.6946971455220015 O
atom_frac 0.8725675983136955 0.2697210692672999 0.6860433966613416 Zn
atom_frac 0.7500000000000000 0.9986550000000002 0.3030300000000000 Zn
    constrain_relaxation .true.
atom_frac 0.7500000000000000 0.6925950000000000 0.3030300000000000 O
    constrain_relaxation .true.
atom_frac 0.8749900000000000 0.9425950000000000 0.3333300000000000 O
    constrain_relaxation .true.
atom_frac 0.8749999999999999 0.7486550000000000 0.3333300000000000 Zn
    constrain_relaxation .true.
atom_frac 0.8749999999999999 0.9986550000000002 0.3939400000000000 Zn
    constrain_relaxation .true.
atom_frac 0.8749999999999999 0.6925950000000000 0.3939400000000000 O
    constrain_relaxation .true.
atom_frac 0.9999900000000002 0.9425950000000000 0.4242400000000000 O
    constrain_relaxation .true.
atom_frac 0.7500000000000000 0.7486550000000000 0.4242400000000000 Zn
    constrain_relaxation .true.
atom_frac 0.7500000000000000 0.9986550000000002 0.4848499999999997 Zn
    constrain_relaxation .true.
atom_frac 0.7500000000000000 0.6925950000000000 0.4848499999999997 O
    constrain_relaxation .true.
atom_frac 0.8749900000000000 0.9425950000000000 0.5151500000000000 O
    constrain_relaxation .true.
atom_frac 0.8749999999999999 0.7486550000000000 0.5151500000000000 Zn
    constrain_relaxation .true.
atom_frac 0.8749999999999999 0.9986550000000002 0.5757600000000000 Zn
    constrain_relaxation .true.
atom_frac 0.8749999999999999 0.6925950000000000 0.5757600000000000 O
    constrain_relaxation .true.
atom_frac 0.9998775087012063 0.9422854563709716 0.6058195954705557 O
atom_frac 0.7482917115359694 0.7601897911810450 0.6043529824228659 Zn
atom_frac 0.7447845721873562 1.0050339176336205 0.6703826579313740 Zn
atom_frac 0.7515961779044329 0.6998614670315666 0.6659781780469862 O
atom_frac 0.8736744969862620 0.9524647619693885 0.6942427405794586 O
atom_frac 0.8770082631300982 0.7793142078628306 0.6848990296256195 Zn
atom_frac 0.6109954119221285 0.4951143238099900 0.7273501393271629 C
atom_frac 0.6072516538589524 0.3940332697585530 0.7490360774087279 O
atom_frac 0.6078315212946568 0.6071686887071269 0.7416486209514830 O
