#=======================================================
# FHI-aims file: ./geometry.in
# Created using the Atomic Simulation Environment (ASE)
# Fri Jul  7 02:06:00 2023
#=======================================================
lattice_vector 13.0879999999999992 0.0000000000000000 0.0000000000000000 
lattice_vector 0.0000000000000000 10.5478199999999998 0.0000000000000000 
lattice_vector 0.0000000000000000 0.0000000000000000 31.1700000000000017 
atom_frac 0.0000000000000000 0.4986550000000000 0.3030300000000000 Zn
    constrain_relaxation .true.
atom_frac 0.0000000000000000 0.1925950000000000 0.3030300000000000 O
    constrain_relaxation .true.
atom_frac 0.1249900000000000 0.4425950000000000 0.3333300000000000 O
    constrain_relaxation .true.
atom_frac 0.1250000000000000 0.2486550000000000 0.3333300000000000 Zn
    constrain_relaxation .true.
atom_frac 0.1250000000000000 0.4986550000000000 0.3939400000000000 Zn
    constrain_relaxation .true.
atom_frac 0.1250000000000000 0.1925950000000000 0.3939400000000000 O
    constrain_relaxation .true.
atom_frac 0.2499900000000000 0.4425950000000000 0.4242400000000000 O
    constrain_relaxation .true.
atom_frac 0.0000000000000000 0.2486550000000000 0.4242400000000000 Zn
    constrain_relaxation .true.
atom_frac 0.0000000000000000 0.4986550000000000 0.4848499999999997 Zn
    constrain_relaxation .true.
atom_frac 0.0000000000000000 0.1925950000000000 0.4848499999999997 O
    constrain_relaxation .true.
atom_frac 0.1249900000000000 0.4425950000000000 0.5151500000000000 O
    constrain_relaxation .true.
atom_frac 0.1250000000000000 0.2486550000000000 0.5151500000000000 Zn
    constrain_relaxation .true.
atom_frac 0.1250000000000000 0.4986550000000000 0.5757600000000000 Zn
    constrain_relaxation .true.
atom_frac 0.1250000000000000 0.1925950000000000 0.5757600000000000 O
    constrain_relaxation .true.
atom_frac 0.2498118551389707 0.4412598370488999 0.6056010689819323 O
atom_frac 0.0001566474009035 0.2555394083982254 0.6038200784430634 Zn
atom_frac 0.0027558047151215 0.5034319986940704 0.6704228801749221 Zn
atom_frac 0.0001281508938734 0.1941907251420565 0.6661228352893296 O
atom_frac 0.1266015198873244 0.4404161977999866 0.6951860875632766 O
atom_frac 0.1280557397283557 0.2666494153320458 0.6854323837123679 Zn
atom_frac 0.0000000000000000 0.9986550000000002 0.3030300000000000 Zn
    constrain_relaxation .true.
atom_frac 0.0000000000000000 0.6925950000000000 0.3030300000000000 O
    constrain_relaxation .true.
atom_frac 0.1249900000000000 0.9425950000000000 0.3333300000000000 O
    constrain_relaxation .true.
atom_frac 0.1250000000000000 0.7486550000000000 0.3333300000000000 Zn
    constrain_relaxation .true.
atom_frac 0.1250000000000000 0.9986550000000002 0.3939400000000000 Zn
    constrain_relaxation .true.
atom_frac 0.1250000000000000 0.6925950000000000 0.3939400000000000 O
    constrain_relaxation .true.
atom_frac 0.2499900000000000 0.9425950000000000 0.4242400000000000 O
    constrain_relaxation .true.
atom_frac 0.0000000000000000 0.7486550000000000 0.4242400000000000 Zn
    constrain_relaxation .true.
atom_frac 0.0000000000000000 0.9986550000000002 0.4848499999999997 Zn
    constrain_relaxation .true.
atom_frac 0.0000000000000000 0.6925950000000000 0.4848499999999997 O
    constrain_relaxation .true.
atom_frac 0.1249900000000000 0.9425950000000000 0.5151500000000000 O
    constrain_relaxation .true.
atom_frac 0.1250000000000000 0.7486550000000000 0.5151500000000000 Zn
    constrain_relaxation .true.
atom_frac 0.1250000000000000 0.9986550000000002 0.5757600000000000 Zn
    constrain_relaxation .true.
atom_frac 0.1250000000000000 0.6925950000000000 0.5757600000000000 O
    constrain_relaxation .true.
atom_frac 0.2499432948712413 0.9433924622891091 0.6054826432637330 O
atom_frac 0.0004667234319015 0.7537440566179788 0.6040479279637225 Zn
atom_frac 0.0013695402536658 1.0048141579349368 0.6691600442138040 Zn
atom_frac 0.0027480312508269 0.6934752552886952 0.6668360886391835 O
atom_frac 0.1267543525990273 0.9476230939620170 0.6945143271514876 O
atom_frac 0.1295010560215359 0.7738139608740352 0.6855260026448438 Zn
atom_frac 0.2500000000000000 0.4986550000000000 0.3030300000000000 Zn
    constrain_relaxation .true.
atom_frac 0.2500000000000000 0.1925950000000000 0.3030300000000000 O
    constrain_relaxation .true.
atom_frac 0.3749900000000000 0.4425950000000000 0.3333300000000000 O
    constrain_relaxation .true.
atom_frac 0.3750000000000000 0.2486550000000000 0.3333300000000000 Zn
    constrain_relaxation .true.
atom_frac 0.3750000000000000 0.4986550000000000 0.3939400000000000 Zn
    constrain_relaxation .true.
atom_frac 0.3750000000000000 0.1925950000000000 0.3939400000000000 O
    constrain_relaxation .true.
atom_frac 0.4999900000000000 0.4425950000000000 0.4242400000000000 O
    constrain_relaxation .true.
atom_frac 0.2500000000000000 0.2486550000000000 0.4242400000000000 Zn
    constrain_relaxation .true.
atom_frac 0.2500000000000000 0.4986550000000000 0.4848499999999997 Zn
    constrain_relaxation .true.
atom_frac 0.2500000000000000 0.1925950000000000 0.4848499999999997 O
    constrain_relaxation .true.
atom_frac 0.3749900000000000 0.4425950000000000 0.5151500000000000 O
    constrain_relaxation .true.
atom_frac 0.3750000000000000 0.2486550000000000 0.5151500000000000 Zn
    constrain_relaxation .true.
atom_frac 0.3750000000000000 0.4986550000000000 0.5757600000000000 Zn
    constrain_relaxation .true.
atom_frac 0.3750000000000000 0.1925950000000000 0.5757600000000000 O
    constrain_relaxation .true.
atom_frac 0.4999705379915414 0.4424711707499305 0.6051798413339913 O
atom_frac 0.2501251290640431 0.2533982851623421 0.6041202241411180 Zn
atom_frac 0.2486153196932631 0.5052113769936964 0.6693402219931223 Zn
atom_frac 0.2551434806885759 0.1913894546511097 0.6667564539542175 O
atom_frac 0.3809430728047785 0.4517977373006868 0.6908362713247173 O
atom_frac 0.3796049944254629 0.2773512359881969 0.6839627213534994 Zn
atom_frac 0.2500000000000000 0.9986550000000002 0.3030300000000000 Zn
    constrain_relaxation .true.
atom_frac 0.2500000000000000 0.6925950000000000 0.3030300000000000 O
    constrain_relaxation .true.
atom_frac 0.3749900000000000 0.9425950000000000 0.3333300000000000 O
    constrain_relaxation .true.
atom_frac 0.3750000000000000 0.7486550000000000 0.3333300000000000 Zn
    constrain_relaxation .true.
atom_frac 0.3750000000000000 0.9986550000000002 0.3939400000000000 Zn
    constrain_relaxation .true.
atom_frac 0.3750000000000000 0.6925950000000000 0.3939400000000000 O
    constrain_relaxation .true.
atom_frac 0.4999900000000000 0.9425950000000000 0.4242400000000000 O
    constrain_relaxation .true.
atom_frac 0.2500000000000000 0.7486550000000000 0.4242400000000000 Zn
    constrain_relaxation .true.
atom_frac 0.2500000000000000 0.9986550000000002 0.4848499999999997 Zn
    constrain_relaxation .true.
atom_frac 0.2500000000000000 0.6925950000000000 0.4848499999999997 O
    constrain_relaxation .true.
atom_frac 0.3749900000000000 0.9425950000000000 0.5151500000000000 O
    constrain_relaxation .true.
atom_frac 0.3750000000000000 0.7486550000000000 0.5151500000000000 Zn
    constrain_relaxation .true.
atom_frac 0.3750000000000000 0.9986550000000002 0.5757600000000000 Zn
    constrain_relaxation .true.
atom_frac 0.3750000000000000 0.6925950000000000 0.5757600000000000 O
    constrain_relaxation .true.
atom_frac 0.5008806031400677 0.9401694760355807 0.6054042995335969 O
atom_frac 0.2501289646051857 0.7553227503947864 0.6037723058506118 Zn
atom_frac 0.2552739757858019 0.9991260977726064 0.6697514712777094 Zn
atom_frac 0.2511755761017354 0.6928626487890780 0.6652355495546827 O
atom_frac 0.3789168274605316 0.9259794842868552 0.6913270512923152 O
atom_frac 0.3930965549753357 0.7545010219651243 0.6774293340674585 Zn
atom_frac 0.5000000000000000 0.4986550000000000 0.3030300000000000 Zn
    constrain_relaxation .true.
atom_frac 0.5000000000000000 0.1925950000000000 0.3030300000000000 O
    constrain_relaxation .true.
atom_frac 0.6249900000000000 0.4425950000000000 0.3333300000000000 O
    constrain_relaxation .true.
atom_frac 0.6250000000000000 0.2486550000000000 0.3333300000000000 Zn
    constrain_relaxation .true.
atom_frac 0.6250000000000000 0.4986550000000000 0.3939400000000000 Zn
    constrain_relaxation .true.
atom_frac 0.6250000000000000 0.1925950000000000 0.3939400000000000 O
    constrain_relaxation .true.
atom_frac 0.7499899999999999 0.4425950000000000 0.4242400000000000 O
    constrain_relaxation .true.
atom_frac 0.5000000000000000 0.2486550000000000 0.4242400000000000 Zn
    constrain_relaxation .true.
atom_frac 0.5000000000000000 0.4986550000000000 0.4848499999999997 Zn
    constrain_relaxation .true.
atom_frac 0.5000000000000000 0.1925950000000000 0.4848499999999997 O
    constrain_relaxation .true.
atom_frac 0.6249900000000000 0.4425950000000000 0.5151500000000000 O
    constrain_relaxation .true.
atom_frac 0.6250000000000000 0.2486550000000000 0.5151500000000000 Zn
    constrain_relaxation .true.
atom_frac 0.6250000000000000 0.4986550000000000 0.5757600000000000 Zn
    constrain_relaxation .true.
atom_frac 0.6250000000000000 0.1925950000000000 0.5757600000000000 O
    constrain_relaxation .true.
atom_frac 0.7500975015369140 0.4383570530036918 0.6044667407759314 O
atom_frac 0.5009943002492464 0.2525330520607025 0.6052957888363246 Zn
atom_frac 0.4788208326015252 0.5488232907522652 0.6585110110589188 Zn
atom_frac 0.5046784478409841 0.1909119536442942 0.6681617754330385 O
atom_frac 0.6193085905928519 0.4731513119829374 0.6829914079196892 O
atom_frac 0.6226060990448203 0.2672531658640211 0.6956576480231786 Zn
atom_frac 0.5000000000000000 0.9986550000000002 0.3030300000000000 Zn
    constrain_relaxation .true.
atom_frac 0.5000000000000000 0.6925950000000000 0.3030300000000000 O
    constrain_relaxation .true.
atom_frac 0.6249900000000000 0.9425950000000000 0.3333300000000000 O
    constrain_relaxation .true.
atom_frac 0.6250000000000000 0.7486550000000000 0.3333300000000000 Zn
    constrain_relaxation .true.
atom_frac 0.6250000000000000 0.9986550000000002 0.3939400000000000 Zn
    constrain_relaxation .true.
atom_frac 0.6250000000000000 0.6925950000000000 0.3939400000000000 O
    constrain_relaxation .true.
atom_frac 0.7499899999999999 0.9425950000000000 0.4242400000000000 O
    constrain_relaxation .true.
atom_frac 0.5000000000000000 0.7486550000000000 0.4242400000000000 Zn
    constrain_relaxation .true.
atom_frac 0.5000000000000000 0.9986550000000002 0.4848499999999997 Zn
    constrain_relaxation .true.
atom_frac 0.5000000000000000 0.6925950000000000 0.4848499999999997 O
    constrain_relaxation .true.
atom_frac 0.6249900000000000 0.9425950000000000 0.5151500000000000 O
    constrain_relaxation .true.
atom_frac 0.6250000000000000 0.7486550000000000 0.5151500000000000 Zn
    constrain_relaxation .true.
atom_frac 0.6250000000000000 0.9986550000000002 0.5757600000000000 Zn
    constrain_relaxation .true.
atom_frac 0.6250000000000000 0.6925950000000000 0.5757600000000000 O
    constrain_relaxation .true.
atom_frac 0.7499648532193482 0.9465205683206696 0.6062006920401507 O
atom_frac 0.5008133307347593 0.7512883023904848 0.6072924496133153 Zn
atom_frac 0.5030444426199185 0.9969609093150426 0.6696070160908408 Zn
atom_frac 0.6244942580195602 0.9230252451213625 0.6940769244988151 O
atom_frac 0.6312708891192821 0.7472482043033575 0.7002530621898559 Zn
atom_frac 0.7500000000000000 0.4986550000000000 0.3030300000000000 Zn
    constrain_relaxation .true.
atom_frac 0.7500000000000000 0.1925950000000000 0.3030300000000000 O
    constrain_relaxation .true.
atom_frac 0.8749900000000000 0.4425950000000000 0.3333300000000000 O
    constrain_relaxation .true.
atom_frac 0.8749999999999999 0.2486550000000000 0.3333300000000000 Zn
    constrain_relaxation .true.
atom_frac 0.8749999999999999 0.4986550000000000 0.3939400000000000 Zn
    constrain_relaxation .true.
atom_frac 0.8749999999999999 0.1925950000000000 0.3939400000000000 O
    constrain_relaxation .true.
atom_frac 0.9999900000000002 0.4425950000000000 0.4242400000000000 O
    constrain_relaxation .true.
atom_frac 0.7500000000000000 0.2486550000000000 0.4242400000000000 Zn
    constrain_relaxation .true.
atom_frac 0.7500000000000000 0.4986550000000000 0.4848499999999997 Zn
    constrain_relaxation .true.
atom_frac 0.7500000000000000 0.1925950000000000 0.4848499999999997 O
    constrain_relaxation .true.
atom_frac 0.8749900000000000 0.4425950000000000 0.5151500000000000 O
    constrain_relaxation .true.
atom_frac 0.8749999999999999 0.2486550000000000 0.5151500000000000 Zn
    constrain_relaxation .true.
atom_frac 0.8749999999999999 0.4986550000000000 0.5757600000000000 Zn
    constrain_relaxation .true.
atom_frac 0.8749999999999999 0.1925950000000000 0.5757600000000000 O
    constrain_relaxation .true.
atom_frac 0.9996169056732727 0.4435351418703089 0.6062672598280761 O
atom_frac 0.7489694936110737 0.2484208469526111 0.6054406837823700 Zn
atom_frac 0.7673300732868293 0.5138834254534562 0.6615560222608204 Zn
atom_frac 0.7439982277358189 0.1948101311609408 0.6690126866965688 O
atom_frac 0.8746934647038803 0.4425847294447898 0.6941570813066862 O
atom_frac 0.8738476301131038 0.2674317520058357 0.6858779310213547 Zn
atom_frac 0.7500000000000000 0.9986550000000002 0.3030300000000000 Zn
    constrain_relaxation .true.
atom_frac 0.7500000000000000 0.6925950000000000 0.3030300000000000 O
    constrain_relaxation .true.
atom_frac 0.8749900000000000 0.9425950000000000 0.3333300000000000 O
    constrain_relaxation .true.
atom_frac 0.8749999999999999 0.7486550000000000 0.3333300000000000 Zn
    constrain_relaxation .true.
atom_frac 0.8749999999999999 0.9986550000000002 0.3939400000000000 Zn
    constrain_relaxation .true.
atom_frac 0.8749999999999999 0.6925950000000000 0.3939400000000000 O
    constrain_relaxation .true.
atom_frac 0.9999900000000002 0.9425950000000000 0.4242400000000000 O
    constrain_relaxation .true.
atom_frac 0.7500000000000000 0.7486550000000000 0.4242400000000000 Zn
    constrain_relaxation .true.
atom_frac 0.7500000000000000 0.9986550000000002 0.4848499999999997 Zn
    constrain_relaxation .true.
atom_frac 0.7500000000000000 0.6925950000000000 0.4848499999999997 O
    constrain_relaxation .true.
atom_frac 0.8749900000000000 0.9425950000000000 0.5151500000000000 O
    constrain_relaxation .true.
atom_frac 0.8749999999999999 0.7486550000000000 0.5151500000000000 Zn
    constrain_relaxation .true.
atom_frac 0.8749999999999999 0.9986550000000002 0.5757600000000000 Zn
    constrain_relaxation .true.
atom_frac 0.8749999999999999 0.6925950000000000 0.5757600000000000 O
    constrain_relaxation .true.
atom_frac 0.9998243359335434 0.9420573671068281 0.6058622963113551 O
atom_frac 0.7486765480502016 0.7591931401986868 0.6042322521644561 Zn
atom_frac 0.7459494797852624 0.9995404705433163 0.6703819941878422 Zn
atom_frac 0.7544744356370326 0.6970651798557168 0.6655451534573510 O
atom_frac 0.8749078265475474 0.9495839505442196 0.6947511866674195 O
atom_frac 0.8793106105991186 0.7764577618809917 0.6852228947645936 Zn
atom_frac 0.6180547469457827 0.4889145538980913 0.7257017715873018 C
atom_frac 0.6186939965506375 0.3870886506867841 0.7470103543963394 O
atom_frac 0.6166296409017259 0.6002361154726085 0.7406857979238295 O
