#=======================================================
# FHI-aims file: /scratch/c.sacdjw/Hongen_home_data/fhi-aims/Hongen_project/Hongen_surfaces/100_fixlayers/CO2_ads/ZnO_100_10layers_7f_4b2_def1.in
# Created using the Atomic Simulation Environment (ASE)
# Wed Feb  8 11:53:18 2023
#=======================================================
lattice_vector 13.0879999999999992 0.0000000000000000 0.0000000000000000 
lattice_vector 0.0000000000000000 10.5478199999999998 0.0000000000000000 
lattice_vector 0.0000000000000000 0.0000000000000000 31.1700000000000017 
atom 0.0000000000000000 5.2597231821000001 9.4454451000000006 Zn
    constrain_relaxation .true.
atom 0.0000000000000000 2.0314573928999997 9.4454451000000006 O
    constrain_relaxation .true.
atom 1.6358691200000000 4.6684123928999997 10.3898961000000014 O
    constrain_relaxation .true.
atom 1.6359999999999999 2.6227681820999997 10.3898961000000014 Zn
    constrain_relaxation .true.
atom 1.6359999999999999 5.2597231821000001 12.2791098000000005 Zn
    constrain_relaxation .true.
atom 1.6359999999999999 2.0314573928999997 12.2791098000000005 O
    constrain_relaxation .true.
atom 3.2718691199999999 4.6684123928999997 13.2235608000000013 O
    constrain_relaxation .true.
atom 0.0000000000000000 2.6227681820999997 13.2235608000000013 Zn
    constrain_relaxation .true.
atom 0.0000000000000000 5.2597231821000001 15.1127744999999969 Zn
    constrain_relaxation .true.
atom 0.0000000000000000 2.0314573928999997 15.1127744999999969 O
    constrain_relaxation .true.
atom 1.6358691200000000 4.6684123928999997 16.0572255000000013 O
    constrain_relaxation .true.
atom 1.6359999999999999 2.6227681820999997 16.0572255000000013 Zn
    constrain_relaxation .true.
atom 1.6359999999999999 5.2597231821000001 17.9464392000000039 Zn
    constrain_relaxation .true.
atom 1.6359999999999999 2.0314573928999997 17.9464392000000039 O
    constrain_relaxation .true.
atom 3.2719955957437494 4.6704662049868846 18.8830129929324464 O
atom 0.0000007619439736 2.6883402114870107 18.8196682859515114 Zn
atom -0.0000035233041077 5.3202375339792392 20.8660245311560288 Zn
atom 0.0000000397570466 2.0422229611236111 20.7602880525504254 O
atom 1.6359903037384798 4.6979317555025650 21.6573128801136363 O
atom 1.6360002701309642 2.8708955543902226 21.3598177521233978 Zn
atom 0.0000000000000000 10.5336331821000009 9.4454451000000006 Zn
    constrain_relaxation .true.
atom 0.0000000000000000 7.3053673928999991 9.4454451000000006 O
    constrain_relaxation .true.
atom 1.6358691200000000 9.9423223928999995 10.3898961000000014 O
    constrain_relaxation .true.
atom 1.6359999999999999 7.8966781820999996 10.3898961000000014 Zn
    constrain_relaxation .true.
atom 1.6359999999999999 10.5336331821000009 12.2791098000000005 Zn
    constrain_relaxation .true.
atom 1.6359999999999999 7.3053673928999991 12.2791098000000005 O
    constrain_relaxation .true.
atom 3.2718691199999999 9.9423223928999995 13.2235608000000013 O
    constrain_relaxation .true.
atom 0.0000000000000000 7.8966781820999996 13.2235608000000013 Zn
    constrain_relaxation .true.
atom 0.0000000000000000 10.5336331821000009 15.1127744999999969 Zn
    constrain_relaxation .true.
atom 0.0000000000000000 7.3053673928999991 15.1127744999999969 O
    constrain_relaxation .true.
atom 1.6358691200000000 9.9423223928999995 16.0572255000000013 O
    constrain_relaxation .true.
atom 1.6359999999999999 7.8966781820999996 16.0572255000000013 Zn
    constrain_relaxation .true.
atom 1.6359999999999999 10.5336331821000009 17.9464392000000039 Zn
    constrain_relaxation .true.
atom 1.6359999999999999 7.3053673928999991 17.9464392000000039 O
    constrain_relaxation .true.
atom 3.2719955957437494 9.9443762049868845 18.8830129929324464 O
atom 0.0000007619439736 7.9622502114870102 18.8196682859515114 Zn
atom -0.0000035233041077 10.5941475339792390 20.8660245311560288 Zn
atom 0.0000000397570466 7.3161329611236106 20.7602880525504254 O
atom 1.6359903037384798 9.9718417555025649 21.6573128801136363 O
atom 1.6360002701309642 8.1448055543902225 21.3598177521233978 Zn
atom 3.2719999999999998 5.2597231821000001 9.4454451000000006 Zn
    constrain_relaxation .true.
atom 3.2719999999999998 2.0314573928999997 9.4454451000000006 O
    constrain_relaxation .true.
atom 4.9078691200000000 4.6684123928999997 10.3898961000000014 O
    constrain_relaxation .true.
atom 4.9079999999999995 2.6227681820999997 10.3898961000000014 Zn
    constrain_relaxation .true.
atom 4.9079999999999995 5.2597231821000001 12.2791098000000005 Zn
    constrain_relaxation .true.
atom 4.9079999999999995 2.0314573928999997 12.2791098000000005 O
    constrain_relaxation .true.
atom 6.5438691200000001 4.6684123928999997 13.2235608000000013 O
    constrain_relaxation .true.
atom 3.2719999999999998 2.6227681820999997 13.2235608000000013 Zn
    constrain_relaxation .true.
atom 3.2719999999999998 5.2597231821000001 15.1127744999999969 Zn
    constrain_relaxation .true.
atom 3.2719999999999998 2.0314573928999997 15.1127744999999969 O
    constrain_relaxation .true.
atom 4.9078691200000000 4.6684123928999997 16.0572255000000013 O
    constrain_relaxation .true.
atom 4.9079999999999995 2.6227681820999997 16.0572255000000013 Zn
    constrain_relaxation .true.
atom 4.9079999999999995 5.2597231821000001 17.9464392000000039 Zn
    constrain_relaxation .true.
atom 4.9079999999999995 2.0314573928999997 17.9464392000000039 O
    constrain_relaxation .true.
atom 6.5439955957437492 4.6704662049868846 18.8830129929324464 O
atom 3.2720007619439735 2.6883402114870107 18.8196682859515114 Zn
atom 3.2719964766958922 5.3202375339792392 20.8660245311560288 Zn
atom 3.2720000397570463 2.0422229611236111 20.7602880525504254 O
atom 4.9079903037384796 4.6979317555025650 21.6573128801136363 O
atom 4.9080002701309642 2.8708955543902226 21.3598177521233978 Zn
atom 3.2719999999999998 10.5336331821000009 9.4454451000000006 Zn
    constrain_relaxation .true.
atom 3.2719999999999998 7.3053673928999991 9.4454451000000006 O
    constrain_relaxation .true.
atom 4.9078691200000000 9.9423223928999995 10.3898961000000014 O
    constrain_relaxation .true.
atom 4.9079999999999995 7.8966781820999996 10.3898961000000014 Zn
    constrain_relaxation .true.
atom 4.9079999999999995 10.5336331821000009 12.2791098000000005 Zn
    constrain_relaxation .true.
atom 4.9079999999999995 7.3053673928999991 12.2791098000000005 O
    constrain_relaxation .true.
atom 6.5438691200000001 9.9423223928999995 13.2235608000000013 O
    constrain_relaxation .true.
atom 3.2719999999999998 7.8966781820999996 13.2235608000000013 Zn
    constrain_relaxation .true.
atom 3.2719999999999998 10.5336331821000009 15.1127744999999969 Zn
    constrain_relaxation .true.
atom 3.2719999999999998 7.3053673928999991 15.1127744999999969 O
    constrain_relaxation .true.
atom 4.9078691200000000 9.9423223928999995 16.0572255000000013 O
    constrain_relaxation .true.
atom 4.9079999999999995 7.8966781820999996 16.0572255000000013 Zn
    constrain_relaxation .true.
atom 4.9079999999999995 10.5336331821000009 17.9464392000000039 Zn
    constrain_relaxation .true.
atom 4.9079999999999995 7.3053673928999991 17.9464392000000039 O
    constrain_relaxation .true.
atom 6.5439955957437492 9.9443762049868845 18.8830129929324464 O
atom 3.2720007619439735 7.9622502114870102 18.8196682859515114 Zn
atom 3.2719964766958922 10.5941475339792390 20.8660245311560288 Zn
atom 3.2720000397570463 7.3161329611236106 20.7602880525504254 O
atom 4.9079903037384796 9.9718417555025649 21.6573128801136363 O
atom 4.9080002701309642 8.1448055543902225 21.3598177521233978 Zn
atom 6.5439999999999996 5.2597231821000001 9.4454451000000006 Zn
    constrain_relaxation .true.
atom 6.5439999999999996 2.0314573928999997 9.4454451000000006 O
    constrain_relaxation .true.
atom 8.1798691199999993 4.6684123928999997 10.3898961000000014 O
    constrain_relaxation .true.
atom 8.1799999999999997 2.6227681820999997 10.3898961000000014 Zn
    constrain_relaxation .true.
atom 8.1799999999999997 5.2597231821000001 12.2791098000000005 Zn
    constrain_relaxation .true.
atom 8.1799999999999997 2.0314573928999997 12.2791098000000005 O
    constrain_relaxation .true.
atom 9.8158691199999986 4.6684123928999997 13.2235608000000013 O
    constrain_relaxation .true.
atom 6.5439999999999996 2.6227681820999997 13.2235608000000013 Zn
    constrain_relaxation .true.
atom 6.5439999999999996 5.2597231821000001 15.1127744999999969 Zn
    constrain_relaxation .true.
atom 6.5439999999999996 2.0314573928999997 15.1127744999999969 O
    constrain_relaxation .true.
atom 8.1798691199999993 4.6684123928999997 16.0572255000000013 O
    constrain_relaxation .true.
atom 8.1799999999999997 2.6227681820999997 16.0572255000000013 Zn
    constrain_relaxation .true.
atom 8.1799999999999997 5.2597231821000001 17.9464392000000039 Zn
    constrain_relaxation .true.
atom 8.1799999999999997 2.0314573928999997 17.9464392000000039 O
    constrain_relaxation .true.
atom 9.8159955957437486 4.6704662049868846 18.8830129929324464 O
atom 6.5440007619439733 2.6883402114870107 18.8196682859515114 Zn
atom 6.5439964766958916 5.3202375339792392 20.8660245311560288 Zn
atom 6.5440000397570461 2.0422229611236111 20.7602880525504254 O
atom 8.1799903037384798 4.6979317555025650 21.6573128801136363 O
atom 8.1800002701309644 2.8708955543902226 21.3598177521233978 Zn
atom 6.5439999999999996 10.5336331821000009 9.4454451000000006 Zn
    constrain_relaxation .true.
atom 6.5439999999999996 7.3053673928999991 9.4454451000000006 O
    constrain_relaxation .true.
atom 8.1798691199999993 9.9423223928999995 10.3898961000000014 O
    constrain_relaxation .true.
atom 8.1799999999999997 7.8966781820999996 10.3898961000000014 Zn
    constrain_relaxation .true.
atom 8.1799999999999997 10.5336331821000009 12.2791098000000005 Zn
    constrain_relaxation .true.
atom 8.1799999999999997 7.3053673928999991 12.2791098000000005 O
    constrain_relaxation .true.
atom 9.8158691199999986 9.9423223928999995 13.2235608000000013 O
    constrain_relaxation .true.
atom 6.5439999999999996 7.8966781820999996 13.2235608000000013 Zn
    constrain_relaxation .true.
atom 6.5439999999999996 10.5336331821000009 15.1127744999999969 Zn
    constrain_relaxation .true.
atom 6.5439999999999996 7.3053673928999991 15.1127744999999969 O
    constrain_relaxation .true.
atom 8.1798691199999993 9.9423223928999995 16.0572255000000013 O
    constrain_relaxation .true.
atom 8.1799999999999997 7.8966781820999996 16.0572255000000013 Zn
    constrain_relaxation .true.
atom 8.1799999999999997 10.5336331821000009 17.9464392000000039 Zn
    constrain_relaxation .true.
atom 8.1799999999999997 7.3053673928999991 17.9464392000000039 O
    constrain_relaxation .true.
atom 9.8159955957437486 9.9443762049868845 18.8830129929324464 O
atom 6.5440007619439733 7.9622502114870102 18.8196682859515114 Zn
atom 6.5439964766958916 10.5941475339792390 20.8660245311560288 Zn
atom 8.1799903037384798 9.9718417555025649 21.6573128801136363 O
atom 8.1800002701309644 8.1448055543902225 21.3598177521233978 Zn
atom 9.8159999999999989 5.2597231821000001 9.4454451000000006 Zn
    constrain_relaxation .true.
atom 9.8159999999999989 2.0314573928999997 9.4454451000000006 O
    constrain_relaxation .true.
atom 11.4518691199999996 4.6684123928999997 10.3898961000000014 O
    constrain_relaxation .true.
atom 11.4519999999999982 2.6227681820999997 10.3898961000000014 Zn
    constrain_relaxation .true.
atom 11.4519999999999982 5.2597231821000001 12.2791098000000005 Zn
    constrain_relaxation .true.
atom 11.4519999999999982 2.0314573928999997 12.2791098000000005 O
    constrain_relaxation .true.
atom 13.0878691200000006 4.6684123928999997 13.2235608000000013 O
    constrain_relaxation .true.
atom 9.8159999999999989 2.6227681820999997 13.2235608000000013 Zn
    constrain_relaxation .true.
atom 9.8159999999999989 5.2597231821000001 15.1127744999999969 Zn
    constrain_relaxation .true.
atom 9.8159999999999989 2.0314573928999997 15.1127744999999969 O
    constrain_relaxation .true.
atom 11.4518691199999996 4.6684123928999997 16.0572255000000013 O
    constrain_relaxation .true.
atom 11.4519999999999982 2.6227681820999997 16.0572255000000013 Zn
    constrain_relaxation .true.
atom 11.4519999999999982 5.2597231821000001 17.9464392000000039 Zn
    constrain_relaxation .true.
atom 11.4519999999999982 2.0314573928999997 17.9464392000000039 O
    constrain_relaxation .true.
atom 13.0879955957437488 4.6704662049868846 18.8830129929324464 O
atom 9.8160007619439735 2.6883402114870107 18.8196682859515114 Zn
atom 9.8159964766958918 5.3202375339792392 20.8660245311560288 Zn
atom 9.8160000397570464 2.0422229611236111 20.7602880525504254 O
atom 11.4519903037384800 4.6979317555025650 21.6573128801136363 O
atom 11.4520002701309629 2.8708955543902226 21.3598177521233978 Zn
atom 9.8159999999999989 10.5336331821000009 9.4454451000000006 Zn
    constrain_relaxation .true.
atom 9.8159999999999989 7.3053673928999991 9.4454451000000006 O
    constrain_relaxation .true.
atom 11.4518691199999996 9.9423223928999995 10.3898961000000014 O
    constrain_relaxation .true.
atom 11.4519999999999982 7.8966781820999996 10.3898961000000014 Zn
    constrain_relaxation .true.
atom 11.4519999999999982 10.5336331821000009 12.2791098000000005 Zn
    constrain_relaxation .true.
atom 11.4519999999999982 7.3053673928999991 12.2791098000000005 O
    constrain_relaxation .true.
atom 13.0878691200000006 9.9423223928999995 13.2235608000000013 O
    constrain_relaxation .true.
atom 9.8159999999999989 7.8966781820999996 13.2235608000000013 Zn
    constrain_relaxation .true.
atom 9.8159999999999989 10.5336331821000009 15.1127744999999969 Zn
    constrain_relaxation .true.
atom 9.8159999999999989 7.3053673928999991 15.1127744999999969 O
    constrain_relaxation .true.
atom 11.4518691199999996 9.9423223928999995 16.0572255000000013 O
    constrain_relaxation .true.
atom 11.4519999999999982 7.8966781820999996 16.0572255000000013 Zn
    constrain_relaxation .true.
atom 11.4519999999999982 10.5336331821000009 17.9464392000000039 Zn
    constrain_relaxation .true.
atom 11.4519999999999982 7.3053673928999991 17.9464392000000039 O
    constrain_relaxation .true.
atom 13.0879955957437488 9.9443762049868845 18.8830129929324464 O
atom 9.8160007619439735 7.9622502114870102 18.8196682859515114 Zn
atom 9.8159964766958918 10.5941475339792390 20.8660245311560288 Zn
atom 9.8160000397570464 7.3161329611236106 20.7602880525504254 O
atom 11.4519903037384800 9.9718417555025649 21.6573128801136363 O
atom 11.4520002701309629 8.1448055543902225 21.3598177521233978 Zn
