#=======================================================
# FHI-aims file: /nfshome/store03/users/c.c1809139/PhD/CO2_on_surfaces/100/100_def1/opt_carbonate_1/geometry.in
# Created using the Atomic Simulation Environment (ASE)
# Tue Jun 27 11:44:47 2023
#=======================================================
lattice_vector 13.0879999999999992 0.0000000000000000 0.0000000000000000 
lattice_vector 0.0000000000000000 10.5478199999999998 0.0000000000000000 
lattice_vector 0.0000000000000000 0.0000000000000000 31.1700000000000017 
atom 0.0000000000000000 5.2597231821000001 9.4454451000000006 Zn
    constrain_relaxation .true.
atom 0.0000000000000000 2.0314573928999997 9.4454451000000006 O
    constrain_relaxation .true.
atom 1.6358691200000000 4.6684123928999997 10.3898961000000014 O
    constrain_relaxation .true.
atom 1.6359999999999999 2.6227681820999997 10.3898961000000014 Zn
    constrain_relaxation .true.
atom 1.6359999999999999 5.2597231821000001 12.2791098000000005 Zn
    constrain_relaxation .true.
atom 1.6359999999999999 2.0314573928999997 12.2791098000000005 O
    constrain_relaxation .true.
atom 3.2718691199999999 4.6684123928999997 13.2235608000000013 O
    constrain_relaxation .true.
atom 0.0000000000000000 2.6227681820999997 13.2235608000000013 Zn
    constrain_relaxation .true.
atom 0.0000000000000000 5.2597231821000001 15.1127744999999916 Zn
    constrain_relaxation .true.
atom 0.0000000000000000 2.0314573928999997 15.1127744999999916 O
    constrain_relaxation .true.
atom 1.6358691200000000 4.6684123928999997 16.0572255000000013 O
    constrain_relaxation .true.
atom 1.6359999999999999 2.6227681820999997 16.0572255000000013 Zn
    constrain_relaxation .true.
atom 1.6359999999999999 5.2597231821000001 17.9464392000000039 Zn
    constrain_relaxation .true.
atom 1.6359999999999999 2.0314573928999997 17.9464392000000039 O
    constrain_relaxation .true.
atom 3.2736407416746398 4.6542486114326911 18.8721553031953917 O
atom -0.0000001715155543 2.6872070821898157 18.8248179778138471 Zn
atom -0.0000078175761989 5.3093670180198433 20.8720597592128598 Zn
atom -0.0000037904578417 2.0252171670158865 20.7626218524688078 O
atom 1.6481677165282813 4.6676393264634770 21.6303263769625538 O
atom 1.6561475955024898 2.8313096358587200 21.3472575559009883 Zn
atom 0.0000000000000000 10.5336331821000009 9.4454451000000006 Zn
    constrain_relaxation .true.
atom 0.0000000000000000 7.3053673928999991 9.4454451000000006 O
    constrain_relaxation .true.
atom 1.6358691200000000 9.9423223928999995 10.3898961000000014 O
    constrain_relaxation .true.
atom 1.6359999999999999 7.8966781820999996 10.3898961000000014 Zn
    constrain_relaxation .true.
atom 1.6359999999999999 10.5336331821000009 12.2791098000000005 Zn
    constrain_relaxation .true.
atom 1.6359999999999999 7.3053673928999991 12.2791098000000005 O
    constrain_relaxation .true.
atom 3.2718691199999999 9.9423223928999995 13.2235608000000013 O
    constrain_relaxation .true.
atom 0.0000000000000000 7.8966781820999996 13.2235608000000013 Zn
    constrain_relaxation .true.
atom 0.0000000000000000 10.5336331821000009 15.1127744999999916 Zn
    constrain_relaxation .true.
atom 0.0000000000000000 7.3053673928999991 15.1127744999999916 O
    constrain_relaxation .true.
atom 1.6358691200000000 9.9423223928999995 16.0572255000000013 O
    constrain_relaxation .true.
atom 1.6359999999999999 7.8966781820999996 16.0572255000000013 Zn
    constrain_relaxation .true.
atom 1.6359999999999999 10.5336331821000009 17.9464392000000039 Zn
    constrain_relaxation .true.
atom 1.6359999999999999 7.3053673928999991 17.9464392000000039 O
    constrain_relaxation .true.
atom 3.2726523794098998 9.9503540450732881 18.8681024114155242 O
atom -0.0000002531976446 7.9563450674226930 18.8350340080680922 Zn
atom -0.0000077916202160 10.5663343356167037 20.8671546719060963 Zn
atom -0.0000042357037790 7.3163661188917031 20.7836269310181585 O
atom 1.6538023218206277 9.9547802043736162 21.6322137748382133 O
atom 1.6884362179079946 8.1198020663432935 21.3510707336101433 Zn
atom 3.2719999999999998 5.2597231821000001 9.4454451000000006 Zn
    constrain_relaxation .true.
atom 3.2719999999999998 2.0314573928999997 9.4454451000000006 O
    constrain_relaxation .true.
atom 4.9078691200000000 4.6684123928999997 10.3898961000000014 O
    constrain_relaxation .true.
atom 4.9079999999999995 2.6227681820999997 10.3898961000000014 Zn
    constrain_relaxation .true.
atom 4.9079999999999995 5.2597231821000001 12.2791098000000005 Zn
    constrain_relaxation .true.
atom 4.9079999999999995 2.0314573928999997 12.2791098000000005 O
    constrain_relaxation .true.
atom 6.5438691199999992 4.6684123928999997 13.2235608000000013 O
    constrain_relaxation .true.
atom 3.2719999999999998 2.6227681820999997 13.2235608000000013 Zn
    constrain_relaxation .true.
atom 3.2719999999999998 5.2597231821000001 15.1127744999999916 Zn
    constrain_relaxation .true.
atom 3.2719999999999998 2.0314573928999997 15.1127744999999916 O
    constrain_relaxation .true.
atom 4.9078691200000000 4.6684123928999997 16.0572255000000013 O
    constrain_relaxation .true.
atom 4.9079999999999995 2.6227681820999997 16.0572255000000013 Zn
    constrain_relaxation .true.
atom 4.9079999999999995 5.2597231821000001 17.9464392000000039 Zn
    constrain_relaxation .true.
atom 4.9079999999999995 2.0314573928999997 17.9464392000000039 O
    constrain_relaxation .true.
atom 6.5439904918417966 4.7077828875849477 18.9039898556430366 O
atom 3.2711325519849828 2.6691709491276230 18.8306844559940707 Zn
atom 3.2666854357352584 5.3304707682053429 20.8433968863489234 Zn
atom 3.3193129605319309 2.0148758091653023 20.7829039782250113 O
atom 4.9566690081778990 4.7702577261428392 21.5933301866244953 O
atom 4.9354299036070461 2.9387028506366906 21.3176592915222152 Zn
atom 3.2719999999999998 10.5336331821000009 9.4454451000000006 Zn
    constrain_relaxation .true.
atom 3.2719999999999998 7.3053673928999991 9.4454451000000006 O
    constrain_relaxation .true.
atom 4.9078691200000000 9.9423223928999995 10.3898961000000014 O
    constrain_relaxation .true.
atom 4.9079999999999995 7.8966781820999996 10.3898961000000014 Zn
    constrain_relaxation .true.
atom 4.9079999999999995 10.5336331821000009 12.2791098000000005 Zn
    constrain_relaxation .true.
atom 4.9079999999999995 7.3053673928999991 12.2791098000000005 O
    constrain_relaxation .true.
atom 6.5438691199999992 9.9423223928999995 13.2235608000000013 O
    constrain_relaxation .true.
atom 3.2719999999999998 7.8966781820999996 13.2235608000000013 Zn
    constrain_relaxation .true.
atom 3.2719999999999998 10.5336331821000009 15.1127744999999916 Zn
    constrain_relaxation .true.
atom 3.2719999999999998 7.3053673928999991 15.1127744999999916 O
    constrain_relaxation .true.
atom 4.9078691200000000 9.9423223928999995 16.0572255000000013 O
    constrain_relaxation .true.
atom 4.9079999999999995 7.8966781820999996 16.0572255000000013 Zn
    constrain_relaxation .true.
atom 4.9079999999999995 10.5336331821000009 17.9464392000000039 Zn
    constrain_relaxation .true.
atom 4.9079999999999995 7.3053673928999991 17.9464392000000039 O
    constrain_relaxation .true.
atom 6.5439905775894500 9.9217516673649779 18.8523462045759516 O
atom 3.2664527759471107 7.9751957168717107 18.8270913868168996 Zn
atom 3.3257517929690725 10.5314195250744671 20.8780297383523816 Zn
atom 3.3479535989727198 7.3144599315905623 20.7410236046278946 O
atom 4.9531152621575032 9.7690545418451968 21.5396839550127375 O
atom 5.1854659703379458 7.9412545822870495 21.1918106957380949 Zn
atom 6.5439999999999996 5.2597231821000001 9.4454451000000006 Zn
    constrain_relaxation .true.
atom 6.5439999999999996 2.0314573928999997 9.4454451000000006 O
    constrain_relaxation .true.
atom 8.1798691199999993 4.6684123928999997 10.3898961000000014 O
    constrain_relaxation .true.
atom 8.1799999999999997 2.6227681820999997 10.3898961000000014 Zn
    constrain_relaxation .true.
atom 8.1799999999999997 5.2597231821000001 12.2791098000000005 Zn
    constrain_relaxation .true.
atom 8.1799999999999997 2.0314573928999997 12.2791098000000005 O
    constrain_relaxation .true.
atom 9.8158691199999986 4.6684123928999997 13.2235608000000013 O
    constrain_relaxation .true.
atom 6.5439999999999996 2.6227681820999997 13.2235608000000013 Zn
    constrain_relaxation .true.
atom 6.5439999999999996 5.2597231821000001 15.1127744999999916 Zn
    constrain_relaxation .true.
atom 6.5439999999999996 2.0314573928999997 15.1127744999999916 O
    constrain_relaxation .true.
atom 8.1798691199999993 4.6684123928999997 16.0572255000000013 O
    constrain_relaxation .true.
atom 8.1799999999999997 2.6227681820999997 16.0572255000000013 Zn
    constrain_relaxation .true.
atom 8.1799999999999997 5.2597231821000001 17.9464392000000039 Zn
    constrain_relaxation .true.
atom 8.1799999999999997 2.0314573928999997 17.9464392000000039 O
    constrain_relaxation .true.
atom 9.8143400891569055 4.6542485325751519 18.8721552588770365 O
atom 6.5439998849774428 2.7115846908713315 18.8152815671304907 Zn
atom 6.5439920501173026 5.5752914106401734 20.8499023401840695 Zn
atom 6.5439962846345852 2.0259520068952104 20.7549127902986719 O
atom 8.0257250253891410 4.9511774461444169 21.8867891776101224 O
atom 8.1525638317613218 2.9387025603948396 21.3176590607136376 Zn
atom 6.5439999999999996 10.5336331821000009 9.4454451000000006 Zn
    constrain_relaxation .true.
atom 6.5439999999999996 7.3053673928999991 9.4454451000000006 O
    constrain_relaxation .true.
atom 8.1798691199999993 9.9423223928999995 10.3898961000000014 O
    constrain_relaxation .true.
atom 8.1799999999999997 7.8966781820999996 10.3898961000000014 Zn
    constrain_relaxation .true.
atom 8.1799999999999997 10.5336331821000009 12.2791098000000005 Zn
    constrain_relaxation .true.
atom 8.1799999999999997 7.3053673928999991 12.2791098000000005 O
    constrain_relaxation .true.
atom 9.8158691199999986 9.9423223928999995 13.2235608000000013 O
    constrain_relaxation .true.
atom 6.5439999999999996 7.8966781820999996 13.2235608000000013 Zn
    constrain_relaxation .true.
atom 6.5439999999999996 10.5336331821000009 15.1127744999999916 Zn
    constrain_relaxation .true.
atom 6.5439999999999996 7.3053673928999991 15.1127744999999916 O
    constrain_relaxation .true.
atom 8.1798691199999993 9.9423223928999995 16.0572255000000013 O
    constrain_relaxation .true.
atom 8.1799999999999997 7.8966781820999996 16.0572255000000013 Zn
    constrain_relaxation .true.
atom 8.1799999999999997 10.5336331821000009 17.9464392000000039 Zn
    constrain_relaxation .true.
atom 8.1799999999999997 7.3053673928999991 17.9464392000000039 O
    constrain_relaxation .true.
atom 9.8153292189295840 9.9503540007188569 18.8681022322401937 O
atom 6.5439998493687872 7.9608980921550749 18.7947383478250067 Zn
atom 6.5439920145092421 10.5827302635699798 20.8577442497185075 Zn
atom 8.1348702231231389 9.7690544497930478 21.5396836038882533 O
atom 7.9025248315476162 7.9412539802405480 21.1918103123426818 Zn
atom 9.8159999999999989 5.2597231821000001 9.4454451000000006 Zn
    constrain_relaxation .true.
atom 9.8159999999999989 2.0314573928999997 9.4454451000000006 O
    constrain_relaxation .true.
atom 11.4518691199999996 4.6684123928999997 10.3898961000000014 O
    constrain_relaxation .true.
atom 11.4519999999999982 2.6227681820999997 10.3898961000000014 Zn
    constrain_relaxation .true.
atom 11.4519999999999982 5.2597231821000001 12.2791098000000005 Zn
    constrain_relaxation .true.
atom 11.4519999999999982 2.0314573928999997 12.2791098000000005 O
    constrain_relaxation .true.
atom 13.0878691200000006 4.6684123928999997 13.2235608000000013 O
    constrain_relaxation .true.
atom 9.8159999999999989 2.6227681820999997 13.2235608000000013 Zn
    constrain_relaxation .true.
atom 9.8159999999999989 5.2597231821000001 15.1127744999999916 Zn
    constrain_relaxation .true.
atom 9.8159999999999989 2.0314573928999997 15.1127744999999916 O
    constrain_relaxation .true.
atom 11.4518691199999996 4.6684123928999997 16.0572255000000013 O
    constrain_relaxation .true.
atom 11.4519999999999982 2.6227681820999997 16.0572255000000013 Zn
    constrain_relaxation .true.
atom 11.4519999999999982 5.2597231821000001 17.9464392000000039 Zn
    constrain_relaxation .true.
atom 11.4519999999999982 2.0314573928999997 17.9464392000000039 O
    constrain_relaxation .true.
atom 13.0879904962771025 4.6695830824699964 18.8818448276693296 O
atom 9.8168670357791683 2.6691707679967931 18.8306841598622547 Zn
atom 9.8212989555353243 5.3304709412358662 20.8433967147102202 Zn
atom 9.7686794592363793 2.0148756760535229 20.7829037226004694 O
atom 11.4398175007623486 4.6676394138284323 21.6303261757914704 O
atom 11.4318454928724851 2.8313097052065195 21.3472573637025036 Zn
atom 9.8159999999999989 10.5336331821000009 9.4454451000000006 Zn
    constrain_relaxation .true.
atom 9.8159999999999989 7.3053673928999991 9.4454451000000006 O
    constrain_relaxation .true.
atom 11.4518691199999996 9.9423223928999995 10.3898961000000014 O
    constrain_relaxation .true.
atom 11.4519999999999982 7.8966781820999996 10.3898961000000014 Zn
    constrain_relaxation .true.
atom 11.4519999999999982 10.5336331821000009 12.2791098000000005 Zn
    constrain_relaxation .true.
atom 11.4519999999999982 7.3053673928999991 12.2791098000000005 O
    constrain_relaxation .true.
atom 13.0878691200000006 9.9423223928999995 13.2235608000000013 O
    constrain_relaxation .true.
atom 9.8159999999999989 7.8966781820999996 13.2235608000000013 Zn
    constrain_relaxation .true.
atom 9.8159999999999989 10.5336331821000009 15.1127744999999916 Zn
    constrain_relaxation .true.
atom 9.8159999999999989 7.3053673928999991 15.1127744999999916 O
    constrain_relaxation .true.
atom 11.4518691199999996 9.9423223928999995 16.0572255000000013 O
    constrain_relaxation .true.
atom 11.4519999999999982 7.8966781820999996 16.0572255000000013 Zn
    constrain_relaxation .true.
atom 11.4519999999999982 10.5336331821000009 17.9464392000000039 Zn
    constrain_relaxation .true.
atom 11.4519999999999982 7.3053673928999991 17.9464392000000039 O
    constrain_relaxation .true.
atom 13.0879905710875235 9.9375542874969813 18.8769477494310678 O
atom 9.8215468002765416 7.9751957295968783 18.8270915129110428 Zn
atom 9.7622330265717441 10.5314191054801931 20.8780296601148265 Zn
atom 9.7400374945402053 7.3144601495643968 20.7410238069983457 O
atom 11.4341836843849673 9.9547800667527433 21.6322138911513981 O
atom 11.3995559547632794 8.1198018580501081 21.3510708827820217 Zn
atom 7.6449375609264063 6.0325459310100262 22.8216188926175398 C
atom 7.1795418378701790 5.8991351463148591 24.2731867987798005 O
atom 6.9023904507913008 7.0097789425927255 21.9789370069673140 O
