#=======================================================
# FHI-aims file: /scratch/c.sacdjw/Hongen_home_data/fhi-aims/Hongen_project/DJW_surfs/ZnO_110_6l_2b2_CO2.in
# Created using the Atomic Simulation Environment (ASE)
# Sat Feb 11 21:56:53 2023
#=======================================================
lattice_vector 10.5478199999999998 0.0000000000000000 0.0000000000000000 
lattice_vector 0.0000000000000000 11.3345400000000005 0.0000000000000000 
lattice_vector 0.0000000000000000 0.0000000000000000 26.1759999999999984 
atom 2.6511418178999997 5.1950163909000002 8.9979999999999993 Zn
    constrain_relaxation .true.
atom 0.0141868179000000 3.3059452818000001 8.9979999999999993 Zn
    constrain_relaxation .true.
atom 0.6054976071000000 5.1951297363000002 8.9979999999999993 O
    constrain_relaxation .true.
atom 3.2424526070999997 3.3059452818000001 8.9979999999999993 O
    constrain_relaxation .true.
atom 2.6511418178999997 2.3613813909000001 10.6339999999999968 Zn
    constrain_relaxation .true.
atom 0.0141868179000000 0.4723102818000000 10.6339999999999968 Zn
    constrain_relaxation .true.
atom 0.6054976071000000 2.3614947363000001 10.6339999999999968 O
    constrain_relaxation .true.
atom 3.2424526070999997 0.4723102818000000 10.6339999999999968 O
    constrain_relaxation .true.
atom 2.6511418178999997 5.1950163909000002 12.2699999999999996 Zn
    constrain_relaxation .true.
atom 0.0141868179000000 3.3059452818000001 12.2699999999999996 Zn
    constrain_relaxation .true.
atom 0.6054976071000000 5.1951297363000002 12.2699999999999996 O
    constrain_relaxation .true.
atom 3.2424526070999997 3.3059452818000001 12.2699999999999996 O
    constrain_relaxation .true.
atom 2.6157467225404383 2.3485871659790054 13.8734683207441361 Zn
atom -0.0212119281643450 0.4851736737564495 13.8734710794913898 Zn
atom 0.6135955193715756 2.3708727496494877 13.9059813155113456 O
atom 3.2505475950012515 0.4628957244598065 13.9059693798602257 O
atom 3.1102806070071796 6.2265626869355870 18.9907992685893170 C
atom 3.1102806070071796 7.5265626869355540 18.9907992685893170 O
atom 3.1102806070071796 5.3007712380159822 18.9907992685893170 O
atom 2.6138101288279256 5.1568767558854907 15.5727442045607347 Zn
atom -0.0231461096161689 3.3441688453916276 15.5727525304737373 Zn
atom 0.6192713967948419 5.2106791788485616 15.5271193803785827 O
atom 3.2562259932590258 3.2903620611509088 15.5271141199713458 O
atom 2.4702412402080403 2.1406841308948366 16.9041066639365027 Zn
atom -0.1667127060575422 0.6930865966641913 16.9041102394582161 Zn
atom 0.6325103447050299 2.3802432020360267 17.1351923815223266 O
atom 3.2694628062279807 0.4535310026933472 17.1351866677038878 O
atom 2.6511418178999997 10.8622863908999996 8.9979999999999993 Zn
    constrain_relaxation .true.
atom 0.0141868179000000 8.9732152817999999 8.9979999999999993 Zn
    constrain_relaxation .true.
atom 0.6054976071000000 10.8623997363000004 8.9979999999999993 O
    constrain_relaxation .true.
atom 3.2424526070999997 8.9732152817999999 8.9979999999999993 O
    constrain_relaxation .true.
atom 2.6511418178999997 8.0286513909000004 10.6339999999999968 Zn
    constrain_relaxation .true.
atom 0.0141868179000000 6.1395802818000007 10.6339999999999968 Zn
    constrain_relaxation .true.
atom 0.6054976071000000 8.0287647363000012 10.6339999999999968 O
    constrain_relaxation .true.
atom 3.2424526070999997 6.1395802818000007 10.6339999999999968 O
    constrain_relaxation .true.
atom 2.6511418178999997 10.8622863908999996 12.2699999999999996 Zn
    constrain_relaxation .true.
atom 0.0141868179000000 8.9732152817999999 12.2699999999999996 Zn
    constrain_relaxation .true.
atom 0.6054976071000000 10.8623997363000004 12.2699999999999996 O
    constrain_relaxation .true.
atom 3.2424526070999997 8.9732152817999999 12.2699999999999996 O
    constrain_relaxation .true.
atom 2.6157467225404383 8.0158571659790052 13.8734683207441361 Zn
atom -0.0212119281643450 6.1524436737564496 13.8734710794913898 Zn
atom 0.6135955193715756 8.0381427496494879 13.9059813155113456 O
atom 3.2505475950012515 6.1301657244598067 13.9059693798602257 O
atom 2.6138101288279256 10.8241467558854900 15.5727442045607347 Zn
atom -0.0231461096161689 9.0114388453916270 15.5727525304737373 Zn
atom 0.6192713967948419 10.8779491788485618 15.5271193803785827 O
atom 3.2562259932590258 8.9576320611509086 15.5271141199713458 O
atom 2.4702412402080403 7.8079541308948368 16.9041066639365027 Zn
atom -0.1667127060575422 6.3603565966641913 16.9041102394582161 Zn
atom 0.6325103447050299 8.0475132020360274 17.1351923815223266 O
atom 3.2694628062279807 6.1208010026933470 17.1351866677038878 O
atom 7.9250518179000000 5.1950163909000002 8.9979999999999993 Zn
    constrain_relaxation .true.
atom 5.2880968178999996 3.3059452818000001 8.9979999999999993 Zn
    constrain_relaxation .true.
atom 5.8794076071000001 5.1951297363000002 8.9979999999999993 O
    constrain_relaxation .true.
atom 8.5163626070999996 3.3059452818000001 8.9979999999999993 O
    constrain_relaxation .true.
atom 7.9250518179000000 2.3613813909000001 10.6339999999999968 Zn
    constrain_relaxation .true.
atom 5.2880968178999996 0.4723102818000000 10.6339999999999968 Zn
    constrain_relaxation .true.
atom 5.8794076071000001 2.3614947363000001 10.6339999999999968 O
    constrain_relaxation .true.
atom 8.5163626070999996 0.4723102818000000 10.6339999999999968 O
    constrain_relaxation .true.
atom 7.9250518179000000 5.1950163909000002 12.2699999999999996 Zn
    constrain_relaxation .true.
atom 5.2880968178999996 3.3059452818000001 12.2699999999999996 Zn
    constrain_relaxation .true.
atom 5.8794076071000001 5.1951297363000002 12.2699999999999996 O
    constrain_relaxation .true.
atom 8.5163626070999996 3.3059452818000001 12.2699999999999996 O
    constrain_relaxation .true.
atom 7.8896567225404386 2.3485871659790054 13.8734683207441361 Zn
atom 5.2526980718356553 0.4851736737564495 13.8734710794913898 Zn
atom 5.8875055193715760 2.3708727496494877 13.9059813155113456 O
atom 8.5244575950012518 0.4628957244598065 13.9059693798602257 O
atom 7.8877201288279259 5.1568767558854907 15.5727442045607347 Zn
atom 5.2507638903838307 3.3441688453916276 15.5727525304737373 Zn
atom 5.8931813967948417 5.2106791788485616 15.5271193803785827 O
atom 8.5301359932590266 3.2903620611509088 15.5271141199713458 O
atom 7.7441512402080406 2.1406841308948366 16.9041066639365027 Zn
atom 5.1071972939424573 0.6930865966641913 16.9041102394582161 Zn
atom 5.9064203447050296 2.3802432020360267 17.1351923815223266 O
atom 8.5433728062279801 0.4535310026933472 17.1351866677038878 O
atom 7.9250518179000000 10.8622863908999996 8.9979999999999993 Zn
    constrain_relaxation .true.
atom 5.2880968178999996 8.9732152817999999 8.9979999999999993 Zn
    constrain_relaxation .true.
atom 5.8794076071000001 10.8623997363000004 8.9979999999999993 O
    constrain_relaxation .true.
atom 8.5163626070999996 8.9732152817999999 8.9979999999999993 O
    constrain_relaxation .true.
atom 7.9250518179000000 8.0286513909000004 10.6339999999999968 Zn
    constrain_relaxation .true.
atom 5.2880968178999996 6.1395802818000007 10.6339999999999968 Zn
    constrain_relaxation .true.
atom 5.8794076071000001 8.0287647363000012 10.6339999999999968 O
    constrain_relaxation .true.
atom 8.5163626070999996 6.1395802818000007 10.6339999999999968 O
    constrain_relaxation .true.
atom 7.9250518179000000 10.8622863908999996 12.2699999999999996 Zn
    constrain_relaxation .true.
atom 5.2880968178999996 8.9732152817999999 12.2699999999999996 Zn
    constrain_relaxation .true.
atom 5.8794076071000001 10.8623997363000004 12.2699999999999996 O
    constrain_relaxation .true.
atom 8.5163626070999996 8.9732152817999999 12.2699999999999996 O
    constrain_relaxation .true.
atom 7.8896567225404386 8.0158571659790052 13.8734683207441361 Zn
atom 5.2526980718356553 6.1524436737564496 13.8734710794913898 Zn
atom 5.8875055193715760 8.0381427496494879 13.9059813155113456 O
atom 8.5244575950012518 6.1301657244598067 13.9059693798602257 O
atom 7.8877201288279259 10.8241467558854900 15.5727442045607347 Zn
atom 5.2507638903838307 9.0114388453916270 15.5727525304737373 Zn
atom 5.8931813967948417 10.8779491788485618 15.5271193803785827 O
atom 8.5301359932590266 8.9576320611509086 15.5271141199713458 O
atom 7.7441512402080406 7.8079541308948368 16.9041066639365027 Zn
atom 5.1071972939424573 6.3603565966641913 16.9041102394582161 Zn
atom 5.9064203447050296 8.0475132020360274 17.1351923815223266 O
atom 8.5433728062279801 6.1208010026933470 17.1351866677038878 O
