#=======================================================
# FHI-aims file: ./geometry.in
# Created using the Atomic Simulation Environment (ASE)
# Tue Feb 14 09:16:54 2023
#=======================================================
lattice_vector 13.0879999999999992 0.0000000000000000 0.0000000000000000 
lattice_vector 0.0000000000000000 10.5478199999999998 0.0000000000000000 
lattice_vector 0.0000000000000000 0.0000000000000000 31.1700000000000017 
atom_frac 0.0000000000000000 0.4986550000000000 0.3030300000000000 Zn
    constrain_relaxation .true.
atom_frac 0.0000000000000000 0.1925950000000000 0.3030300000000000 O
    constrain_relaxation .true.
atom_frac 0.1249900000000000 0.4425950000000000 0.3333300000000000 O
    constrain_relaxation .true.
atom_frac 0.1250000000000000 0.2486550000000000 0.3333300000000000 Zn
    constrain_relaxation .true.
atom_frac 0.1250000000000000 0.4986550000000000 0.3939400000000000 Zn
    constrain_relaxation .true.
atom_frac 0.1250000000000000 0.1925950000000000 0.3939400000000000 O
    constrain_relaxation .true.
atom_frac 0.2499900000000000 0.4425950000000000 0.4242400000000000 O
    constrain_relaxation .true.
atom_frac 0.0000000000000000 0.2486550000000000 0.4242400000000000 Zn
    constrain_relaxation .true.
atom_frac 0.0000000000000000 0.4986550000000000 0.4848499999999997 Zn
    constrain_relaxation .true.
atom_frac 0.0000000000000000 0.1925950000000000 0.4848499999999997 O
    constrain_relaxation .true.
atom_frac 0.1249900000000000 0.4425950000000000 0.5151500000000000 O
    constrain_relaxation .true.
atom_frac 0.1250000000000000 0.2486550000000000 0.5151500000000000 Zn
    constrain_relaxation .true.
atom_frac 0.1250000000000000 0.4986550000000000 0.5757600000000000 Zn
    constrain_relaxation .true.
atom_frac 0.1250000000000000 0.1925950000000000 0.5757600000000000 O
    constrain_relaxation .true.
atom_frac 0.2501253622917665 0.4412521839994133 0.6054589446004296 O
atom_frac -0.0000000131047948 0.2547642149932228 0.6039402623616890 Zn
atom_frac -0.0000005973086949 0.5033615494026106 0.6696201398528348 Zn
atom_frac -0.0000002896132214 0.1920033871469068 0.6661091386740072 O
atom_frac 0.1259296849425643 0.4425217084159075 0.6939469482503225 O
atom_frac 0.1265393945218895 0.2684260478334594 0.6848654974623352 Zn
atom_frac 0.0000000000000000 0.9986550000000002 0.3030300000000000 Zn
    constrain_relaxation .true.
atom_frac 0.0000000000000000 0.6925950000000000 0.3030300000000000 O
    constrain_relaxation .true.
atom_frac 0.1249900000000000 0.9425950000000000 0.3333300000000000 O
    constrain_relaxation .true.
atom_frac 0.1250000000000000 0.7486550000000000 0.3333300000000000 Zn
    constrain_relaxation .true.
atom_frac 0.1250000000000000 0.9986550000000002 0.3939400000000000 Zn
    constrain_relaxation .true.
atom_frac 0.1250000000000000 0.6925950000000000 0.3939400000000000 O
    constrain_relaxation .true.
atom_frac 0.2499900000000000 0.9425950000000000 0.4242400000000000 O
    constrain_relaxation .true.
atom_frac 0.0000000000000000 0.7486550000000000 0.4242400000000000 Zn
    constrain_relaxation .true.
atom_frac 0.0000000000000000 0.9986550000000002 0.4848499999999997 Zn
    constrain_relaxation .true.
atom_frac 0.0000000000000000 0.6925950000000000 0.4848499999999997 O
    constrain_relaxation .true.
atom_frac 0.1249900000000000 0.9425950000000000 0.5151500000000000 O
    constrain_relaxation .true.
atom_frac 0.1250000000000000 0.7486550000000000 0.5151500000000000 Zn
    constrain_relaxation .true.
atom_frac 0.1250000000000000 0.9986550000000002 0.5757600000000000 Zn
    constrain_relaxation .true.
atom_frac 0.1250000000000000 0.6925950000000000 0.5757600000000000 O
    constrain_relaxation .true.
atom_frac 0.2500498456150596 0.9433564513874231 0.6053289191984448 O
atom_frac -0.0000000193457858 0.7543117978333621 0.6042680143749789 Zn
atom_frac -0.0000005953255055 1.0017552760301849 0.6694627742029546 Zn
atom_frac -0.0000003236326237 0.6936377487378154 0.6667830263400114 O
atom_frac 0.1263602018505981 0.9437760792631669 0.6940074999948095 O
atom_frac 0.1290064347423590 0.7698085544068153 0.6849878323262798 Zn
atom_frac 0.2500000000000000 0.4986550000000000 0.3030300000000000 Zn
    constrain_relaxation .true.
atom_frac 0.2500000000000000 0.1925950000000000 0.3030300000000000 O
    constrain_relaxation .true.
atom_frac 0.3749900000000000 0.4425950000000000 0.3333300000000000 O
    constrain_relaxation .true.
atom_frac 0.3750000000000000 0.2486550000000000 0.3333300000000000 Zn
    constrain_relaxation .true.
atom_frac 0.3750000000000000 0.4986550000000000 0.3939400000000000 Zn
    constrain_relaxation .true.
atom_frac 0.3750000000000000 0.1925950000000000 0.3939400000000000 O
    constrain_relaxation .true.
atom_frac 0.4999900000000000 0.4425950000000000 0.4242400000000000 O
    constrain_relaxation .true.
atom_frac 0.2500000000000000 0.2486550000000000 0.4242400000000000 Zn
    constrain_relaxation .true.
atom_frac 0.2500000000000000 0.4986550000000000 0.4848499999999997 Zn
    constrain_relaxation .true.
atom_frac 0.2500000000000000 0.1925950000000000 0.4848499999999997 O
    constrain_relaxation .true.
atom_frac 0.3749900000000000 0.4425950000000000 0.5151500000000000 O
    constrain_relaxation .true.
atom_frac 0.3750000000000000 0.2486550000000000 0.5151500000000000 Zn
    constrain_relaxation .true.
atom_frac 0.3750000000000000 0.4986550000000000 0.5757600000000000 Zn
    constrain_relaxation .true.
atom_frac 0.3750000000000000 0.1925950000000000 0.5757600000000000 O
    constrain_relaxation .true.
atom_frac 0.4999992735209197 0.4463275717242945 0.6064802648586152 O
atom_frac 0.2499337218814932 0.2530542755875264 0.6041284714787959 Zn
atom_frac 0.2495939361044666 0.5053623182994537 0.6687005738321758 Zn
atom_frac 0.2536149878157038 0.1910229610635470 0.6667598324743347 O
atom_frac 0.3787185978131036 0.4522505812710910 0.6927600316530156 O
atom_frac 0.3770958055934479 0.2786076033376272 0.6839159220892593 Zn
atom_frac 0.2500000000000000 0.9986550000000002 0.3030300000000000 Zn
    constrain_relaxation .true.
atom_frac 0.2500000000000000 0.6925950000000000 0.3030300000000000 O
    constrain_relaxation .true.
atom_frac 0.3749900000000000 0.9425950000000000 0.3333300000000000 O
    constrain_relaxation .true.
atom_frac 0.3750000000000000 0.7486550000000000 0.3333300000000000 Zn
    constrain_relaxation .true.
atom_frac 0.3750000000000000 0.9986550000000002 0.3939400000000000 Zn
    constrain_relaxation .true.
atom_frac 0.3750000000000000 0.6925950000000000 0.3939400000000000 O
    constrain_relaxation .true.
atom_frac 0.4999900000000000 0.9425950000000000 0.4242400000000000 O
    constrain_relaxation .true.
atom_frac 0.2500000000000000 0.7486550000000000 0.4242400000000000 Zn
    constrain_relaxation .true.
atom_frac 0.2500000000000000 0.9986550000000002 0.4848499999999997 Zn
    constrain_relaxation .true.
atom_frac 0.2500000000000000 0.6925950000000000 0.4848499999999997 O
    constrain_relaxation .true.
atom_frac 0.3749900000000000 0.9425950000000000 0.5151500000000000 O
    constrain_relaxation .true.
atom_frac 0.3750000000000000 0.7486550000000000 0.5151500000000000 Zn
    constrain_relaxation .true.
atom_frac 0.3750000000000000 0.9986550000000002 0.5757600000000000 Zn
    constrain_relaxation .true.
atom_frac 0.3750000000000000 0.6925950000000000 0.5757600000000000 O
    constrain_relaxation .true.
atom_frac 0.4999992800725436 0.9406447652088278 0.6048234265183173 O
atom_frac 0.2495761595314113 0.7560989585404103 0.6040131981654443 Zn
atom_frac 0.2541069523967812 0.9984451313232940 0.6698116695011992 Zn
atom_frac 0.2558033006550061 0.6934570301342422 0.6654162208735288 O
atom_frac 0.3784470707638679 0.9261681126379856 0.6910389462628405 O
atom_frac 0.3962000282959922 0.7528811244680939 0.6798784310470996 Zn
atom_frac 0.5000000000000000 0.4986550000000000 0.3030300000000000 Zn
    constrain_relaxation .true.
atom_frac 0.5000000000000000 0.1925950000000000 0.3030300000000000 O
    constrain_relaxation .true.
atom_frac 0.6249900000000000 0.4425950000000000 0.3333300000000000 O
    constrain_relaxation .true.
atom_frac 0.6250000000000000 0.2486550000000000 0.3333300000000000 Zn
    constrain_relaxation .true.
atom_frac 0.6250000000000000 0.4986550000000000 0.3939400000000000 Zn
    constrain_relaxation .true.
atom_frac 0.6250000000000000 0.1925950000000000 0.3939400000000000 O
    constrain_relaxation .true.
atom_frac 0.7499899999999999 0.4425950000000000 0.4242400000000000 O
    constrain_relaxation .true.
atom_frac 0.5000000000000000 0.2486550000000000 0.4242400000000000 Zn
    constrain_relaxation .true.
atom_frac 0.5000000000000000 0.4986550000000000 0.4848499999999997 Zn
    constrain_relaxation .true.
atom_frac 0.5000000000000000 0.1925950000000000 0.4848499999999997 O
    constrain_relaxation .true.
atom_frac 0.6249900000000000 0.4425950000000000 0.5151500000000000 O
    constrain_relaxation .true.
atom_frac 0.6250000000000000 0.2486550000000000 0.5151500000000000 Zn
    constrain_relaxation .true.
atom_frac 0.6250000000000000 0.4986550000000000 0.5757600000000000 Zn
    constrain_relaxation .true.
atom_frac 0.6250000000000000 0.1925950000000000 0.5757600000000000 O
    constrain_relaxation .true.
atom_frac 0.7498731730712795 0.4412521765232202 0.6054589431786024 O
atom_frac 0.4999999912116017 0.2570753663668257 0.6036343139919952 Zn
atom_frac 0.4999993925823123 0.5285728625099948 0.6689092826494728 Zn
atom_frac 0.4999997161242807 0.1920730546117786 0.6658618155373330 O
atom_frac 0.6212802699963870 0.4522505652387251 0.6927600139572635 O
atom_frac 0.6229037157519348 0.2786075758208653 0.6839159146844285 Zn
atom_frac 0.5000000000000000 0.9986550000000002 0.3030300000000000 Zn
    constrain_relaxation .true.
atom_frac 0.5000000000000000 0.6925950000000000 0.3030300000000000 O
    constrain_relaxation .true.
atom_frac 0.6249900000000000 0.9425950000000000 0.3333300000000000 O
    constrain_relaxation .true.
atom_frac 0.6250000000000000 0.7486550000000000 0.3333300000000000 Zn
    constrain_relaxation .true.
atom_frac 0.6250000000000000 0.9986550000000002 0.3939400000000000 Zn
    constrain_relaxation .true.
atom_frac 0.6250000000000000 0.6925950000000000 0.3939400000000000 O
    constrain_relaxation .true.
atom_frac 0.7499899999999999 0.9425950000000000 0.4242400000000000 O
    constrain_relaxation .true.
atom_frac 0.5000000000000000 0.7486550000000000 0.4242400000000000 Zn
    constrain_relaxation .true.
atom_frac 0.5000000000000000 0.9986550000000002 0.4848499999999997 Zn
    constrain_relaxation .true.
atom_frac 0.5000000000000000 0.6925950000000000 0.4848499999999997 O
    constrain_relaxation .true.
atom_frac 0.6249900000000000 0.9425950000000000 0.5151500000000000 O
    constrain_relaxation .true.
atom_frac 0.6250000000000000 0.7486550000000000 0.5151500000000000 Zn
    constrain_relaxation .true.
atom_frac 0.6250000000000000 0.9986550000000002 0.5757600000000000 Zn
    constrain_relaxation .true.
atom_frac 0.6250000000000000 0.6925950000000000 0.5757600000000000 O
    constrain_relaxation .true.
atom_frac 0.7499487483900966 0.9433564471823427 0.6053289134501184 O
atom_frac 0.4999999884908915 0.7547434533538755 0.6029752437544115 Zn
atom_frac 0.4999993898616475 1.0033097136251832 0.6691608678125924 Zn
atom_frac 0.6215518202264012 0.9261681039108601 0.6910389349980190 O
atom_frac 0.6037992689140905 0.7528810673902805 0.6798784187469580 Zn
atom_frac 0.7500000000000000 0.4986550000000000 0.3030300000000000 Zn
    constrain_relaxation .true.
atom_frac 0.7500000000000000 0.1925950000000000 0.3030300000000000 O
    constrain_relaxation .true.
atom_frac 0.8749900000000000 0.4425950000000000 0.3333300000000000 O
    constrain_relaxation .true.
atom_frac 0.8749999999999999 0.2486550000000000 0.3333300000000000 Zn
    constrain_relaxation .true.
atom_frac 0.8749999999999999 0.4986550000000000 0.3939400000000000 Zn
    constrain_relaxation .true.
atom_frac 0.8749999999999999 0.1925950000000000 0.3939400000000000 O
    constrain_relaxation .true.
atom_frac 0.9999900000000002 0.4425950000000000 0.4242400000000000 O
    constrain_relaxation .true.
atom_frac 0.7500000000000000 0.2486550000000000 0.4242400000000000 Zn
    constrain_relaxation .true.
atom_frac 0.7500000000000000 0.4986550000000000 0.4848499999999997 Zn
    constrain_relaxation .true.
atom_frac 0.7500000000000000 0.1925950000000000 0.4848499999999997 O
    constrain_relaxation .true.
atom_frac 0.8749900000000000 0.4425950000000000 0.5151500000000000 O
    constrain_relaxation .true.
atom_frac 0.8749999999999999 0.2486550000000000 0.5151500000000000 Zn
    constrain_relaxation .true.
atom_frac 0.8749999999999999 0.4986550000000000 0.5757600000000000 Zn
    constrain_relaxation .true.
atom_frac 0.8749999999999999 0.1925950000000000 0.5757600000000000 O
    constrain_relaxation .true.
atom_frac 0.9999992738598031 0.4427059887701910 0.6057698051866964 O
atom_frac 0.7500662466212690 0.2530542584151790 0.6041284619782564 Zn
atom_frac 0.7504048712970144 0.5053623347038408 0.6687005683256406 Zn
atom_frac 0.7463844330101146 0.1910229484437090 0.6667598242733548 O
atom_frac 0.8740691855716954 0.4425217166986574 0.6939469417963257 O
atom_frac 0.8734600773894015 0.2684260544080691 0.6848654912961983 Zn
atom_frac 0.7500000000000000 0.9986550000000002 0.3030300000000000 Zn
    constrain_relaxation .true.
atom_frac 0.7500000000000000 0.6925950000000000 0.3030300000000000 O
    constrain_relaxation .true.
atom_frac 0.8749900000000000 0.9425950000000000 0.3333300000000000 O
    constrain_relaxation .true.
atom_frac 0.8749999999999999 0.7486550000000000 0.3333300000000000 Zn
    constrain_relaxation .true.
atom_frac 0.8749999999999999 0.9986550000000002 0.3939400000000000 Zn
    constrain_relaxation .true.
atom_frac 0.8749999999999999 0.6925950000000000 0.3939400000000000 O
    constrain_relaxation .true.
atom_frac 0.9999900000000002 0.9425950000000000 0.4242400000000000 O
    constrain_relaxation .true.
atom_frac 0.7500000000000000 0.7486550000000000 0.4242400000000000 Zn
    constrain_relaxation .true.
atom_frac 0.7500000000000000 0.9986550000000002 0.4848499999999997 Zn
    constrain_relaxation .true.
atom_frac 0.7500000000000000 0.6925950000000000 0.4848499999999997 O
    constrain_relaxation .true.
atom_frac 0.8749900000000000 0.9425950000000000 0.5151500000000000 O
    constrain_relaxation .true.
atom_frac 0.8749999999999999 0.7486550000000000 0.5151500000000000 Zn
    constrain_relaxation .true.
atom_frac 0.8749999999999999 0.9986550000000002 0.5757600000000000 Zn
    constrain_relaxation .true.
atom_frac 0.8749999999999999 0.6925950000000000 0.5757600000000000 O
    constrain_relaxation .true.
atom_frac 0.9999992795757583 0.9421429534725642 0.6056126964847952 O
atom_frac 0.7504238080895891 0.7560989597468366 0.6040132022108130 Zn
atom_frac 0.7458918877270587 0.9984450915431050 0.6698116669911718 Zn
atom_frac 0.7441960188371184 0.6934570507995393 0.6654162273660040 O
atom_frac 0.8736387289413943 0.9437760662158383 0.6940075037263842 O
atom_frac 0.8709929672037958 0.7698085346593048 0.6849878371120315 Zn
